@relation '2025-08-MD-weka.filters.unsupervised.attribute.Discretize-B3-M-1.0-R25-precision6-weka.filters.unsupervised.attribute.Reorder-R1,2,3,4,5,6,7,8,9,10,11,12,13,14,15,16,17,18,19,20,21,22,23,24,26,27,28,29,30,31,32,33,34,35,36,37,38,39,40,41,42,43,44,45,46,47,48,49,50,51,52,53,54,55,56,57,58,59,60,61,62,63,64,65,66,67,68,69,70,71,72,73,74,75,76,77,78,79,80,81,82,83,84,85,86,87,88,89,90,91,92,93,94,95,96,97,98,99,100,101,102,103,104,105,106,107,108,109,110,111,112,113,114,115,116,117,118,119,120,121,122,123,124,125,126,127,25-weka.filters.unsupervised.attribute.Discretize-B3-M-1.0-R25-precision6-weka.filters.unsupervised.attribute.Discretize-B3-M-1.0-Rlast-precision6-weka.filters.unsupervised.attribute.Discretize-B3-M-1.0-Rlast-precision6-weka.filters.unsupervised.attribute.Discretize-B3-M-1.0-R127-precision6-weka.filters.unsupervised.attribute.Discretize-B3-M-1.0-R127-precision6-weka.filters.unsupervised.attribute.Reorder-R1,2,3,4,5,6,7,8,9,10,11,12,13,14,15,16,17,18,19,20,21,22,23,24,25,26,27,28,29,30,31,32,33,34,35,36,37,38,39,40,41,42,43,44,45,46,47,48,49,50,51,52,53,54,55,56,57,58,59,60,61,62,63,64,65,66,67,68,69,70,71,72,73,74,75,76,77,78,79,80,81,82,83,84,85,86,87,88,89,90,91,92,93,94,95,96,97,98,99,100,101,102,103,104,105,106,107,108,109,110,111,112,113,114,115,116,117,118,119,120,121,122,123,124,125,127,126-weka.filters.unsupervised.attribute.Discretize-B3-M-1.0-R127-precision6-weka.filters.unsupervised.attribute.Discretize-B3-M-1.0-R126-precision6-weka.filters.unsupervised.attribute.Reorder-R1,2,3,4,5,6,7,8,9,10,11,12,13,14,15,16,17,18,19,20,21,22,23,24,25,26,27,28,29,30,31,32,33,34,35,36,37,38,39,40,41,42,43,44,45,46,47,48,49,50,51,52,53,54,55,56,57,58,59,60,61,62,63,64,65,66,67,68,69,70,71,72,73,74,75,76,77,78,79,80,81,82,83,84,85,86,87,88,89,90,91,92,93,94,95,96,97,98,99,100,101,102,103,104,105,106,107,108,109,110,111,112,113,114,115,116,117,118,119,120,121,122,123,124,125,127,126-weka.filters.unsupervised.attribute.Remove-R1-weka.filters.unsupervised.attribute.Remove-R57,93,121-weka.filters.unsupervised.attribute.Standardize-weka.filters.unsupervised.attribute.Remove-R84-86,122-weka.filters.unsupervised.instance.RemoveRange-R1-560-weka.filters.unsupervised.attribute.Remove-V-R24,27,29,26,30,31,33,99,102,109,62,63,65,68,69,6,5,9,82,83,86,119'

@attribute UEMPMEAN {'\'(-inf-14.9]\'','\'(14.9-27.8]\'','\'(27.8-inf)\''}
@attribute UEMP15OV numeric
@attribute UEMP27OV numeric
@attribute UEMP5TO14 numeric
@attribute CLAIMSx numeric
@attribute PAYEMS numeric
@attribute CES1021000001 numeric
@attribute CPIAUCSL numeric
@attribute CPIMEDSL numeric
@attribute PCEPI numeric
@attribute M1SL numeric
@attribute M2SL numeric
@attribute BOGMBASE numeric
@attribute BUSLOANS numeric
@attribute REALLN numeric
@attribute INDPRO numeric
@attribute RETAILx numeric
@attribute IPCONGD numeric
@attribute AAA numeric
@attribute BAA numeric
@attribute T10YFFM numeric
@attribute UNRATE {'\'(-inf-6.266667]\'','\'(6.266667-10.533333]\'','\'(10.533333-inf)\''}

@data
'\'(14.9-27.8]\'',0.039206,-0.041744,0.217598,-0.169746,0.849946,-0.771757,0.6556,0.594903,0.668126,-0.218111,0.169812,-0.243666,0.154149,0.661559,1.082085,0.590451,1.323028,-0.618336,-0.612198,-0.140736,'\'(-inf-6.266667]\''
'\'(14.9-27.8]\'',0.021446,-0.017517,0.206391,0.143543,0.851556,-0.730029,0.687333,0.601154,0.692393,-0.217947,0.175499,-0.240662,0.160507,0.67353,1.012432,0.59565,1.327418,-0.603418,-0.588146,-0.253676,'\'(-inf-6.266667]\''
'\'(14.9-27.8]\'',-0.003529,-0.030387,0.208632,0.000692,0.854365,-0.689765,0.690859,0.610247,0.696452,-0.218377,0.181187,-0.241066,0.177229,0.687752,1.055537,0.59645,1.325939,-0.521369,-0.495376,-0.190931,'\'(-inf-6.266667]\''
'\'(14.9-27.8]\'',-0.006859,-0.069757,0.192942,-0.162732,0.865601,-0.64218,0.679106,0.620477,0.691141,-0.218459,0.183997,-0.237426,0.187227,0.701562,1.094787,0.611949,1.321924,-0.495263,-0.464452,-0.278773,'\'(-inf-6.266667]\''
'\'(14.9-27.8]\'',-0.038494,-0.080356,0.155958,-0.166707,0.87062,-0.607773,0.679106,0.623319,0.691141,-0.218827,0.188574,-0.23188,0.204021,0.719471,1.112207,0.612869,1.353618,-0.51391,-0.488504,-0.423085,'\'(-inf-6.266667]\''
'\'(14.9-27.8]\'',-0.12674,-0.221178,0.094317,-0.263265,0.879078,-0.576294,0.69321,0.625592,0.703442,-0.217762,0.195692,-0.231245,0.220141,0.730539,1.117933,0.663919,1.314505,-0.543746,-0.515991,-0.536025,'\'(-inf-6.266667]\''
'\'(14.9-27.8]\'',0.026441,-0.084899,-0.024481,-0.286645,0.888705,-0.53969,0.694385,0.634685,0.704969,-0.217988,0.199831,-0.23084,0.231806,0.746173,1.119476,0.650107,1.291836,-0.521369,-0.505683,-0.567397,'\'(-inf-6.266667]\''
'\'(14.9-27.8]\'',-0.069575,-0.11594,-0.124227,-0.23521,0.898331,-0.492105,0.697911,0.642641,0.709913,-0.217005,0.202288,-0.227836,0.244331,0.760373,1.127715,0.657089,1.317968,-0.454238,-0.45758,-0.536025,'\'(-inf-6.266667]\''
'\'(14.9-27.8]\'',-0.080675,-0.099284,0.036039,-0.226559,0.90376,-0.421094,0.709664,0.649461,0.721787,-0.217373,0.208598,-0.228356,0.264669,0.778789,1.138496,0.666051,1.330855,-0.338624,-0.364809,-0.492104,'\'(-inf-6.266667]\''
'\'(14.9-27.8]\'',-0.108425,-0.09777,0.088713,-0.090255,0.905054,-0.407917,0.716716,0.656281,0.728686,-0.216185,0.209759,-0.226392,0.287039,0.794788,1.139413,0.659869,1.323385,-0.2976,-0.340757,-0.510928,'\'(-inf-6.266667]\''
'\'(14.9-27.8]\'',-0.206106,-0.240105,-0.03793,-0.217675,0.907768,-0.364724,0.722592,0.661964,0.735035,-0.218602,0.216187,-0.226507,0.306362,0.81421,1.151716,0.669829,1.346522,-0.319977,-0.330449,-0.5423,'\'(-inf-6.266667]\''
'\'(14.9-27.8]\'',-0.116195,-0.119726,0.018107,-0.155485,0.913891,-0.333977,0.735521,0.667079,0.743856,-0.219217,0.22322,-0.227027,0.320565,0.829477,1.149321,0.675687,1.304443,-0.334895,-0.337321,-0.71171,'\'(-inf-6.266667]\''
'\'(14.9-27.8]\'',-0.113975,-0.118211,0.152595,-0.17676,0.919067,-0.309087,0.746098,0.673898,0.752006,-0.219217,0.228504,-0.228067,0.347633,0.835104,1.165221,0.682841,1.348591,-0.398296,-0.395733,-0.849747,'\'(-inf-6.266667]\''
'\'(14.9-27.8]\'',-0.148385,-0.164395,-0.063707,-0.167642,0.92336,-0.283464,0.734345,0.679581,0.745199,-0.220855,0.233098,-0.227663,0.346412,0.850712,1.158555,0.672155,1.327159,-0.461697,-0.450708,-0.950138,'\'(-inf-6.266667]\''
'\'(14.9-27.8]\'',-0.242181,-0.290831,-0.00767,-0.170915,0.923896,-0.2432,0.723768,0.684696,0.739094,-0.219647,0.24141,-0.228009,0.358852,0.93559,1.154791,0.671083,1.321316,-0.461697,-0.454144,-0.943864,'\'(-inf-6.266667]\''
'\'(14.9-27.8]\'',-0.188346,-0.250705,0.11449,-0.120649,0.930682,-0.23588,0.724943,0.689243,0.73998,-0.219544,0.247384,-0.223965,0.369483,0.95175,1.153807,0.676732,1.329729,-0.528828,-0.529735,-1.025432,'\'(-inf-6.266667]\''
'\'(14.9-27.8]\'',-0.230526,-0.279475,-0.070431,-0.13117,0.936616,-0.208061,0.737871,0.691516,0.749167,-0.220405,0.254602,-0.218246,0.38509,0.971772,1.191416,0.698947,1.353184,-0.532558,-0.522863,-1.044255,'\'(-inf-6.266667]\''
'\'(14.9-27.8]\'',-0.190011,-0.243134,0.176131,-0.162732,0.943654,-0.192687,0.741832,0.705036,0.757836,-0.21936,0.261013,-0.220383,0.397649,0.984887,1.17817,0.695942,1.325939,-0.502722,-0.481632,-0.92504,'\'(-inf-6.266667]\''
'\'(14.9-27.8]\'',-0.159486,-0.161366,0.065178,-0.137015,0.946369,-0.157548,0.751105,0.715101,0.765925,-0.221142,0.263722,-0.222116,0.413104,1.000653,1.213774,0.699877,1.378755,-0.506451,-0.502247,-0.956413,'\'(-inf-6.266667]\''
'\'(14.9-27.8]\'',-0.135065,-0.164395,0.031556,-0.199439,0.953439,-0.124604,0.763587,0.718221,0.775479,-0.220425,0.269427,-0.221597,0.426247,0.967248,1.220384,0.714875,1.341686,-0.540017,-0.505683,-1.056804,'\'(-inf-6.266667]\''
'\'(14.9-27.8]\'',-0.120635,-0.193922,0.076385,-0.148705,0.955427,-0.081412,0.770827,0.726297,0.781645,-0.21807,0.281626,-0.220383,0.439463,0.982895,1.245444,0.710417,1.365829,-0.476615,-0.464452,-0.968962,'\'(-inf-6.266667]\''
'\'(14.9-27.8]\'',-0.148385,-0.249947,0.081989,-0.22352,0.960098,-0.064574,0.780828,0.732952,0.789276,-0.217476,0.283965,-0.218823,0.461744,0.993943,1.247465,0.734053,1.347435,-0.476615,-0.464452,-0.931315,'\'(-inf-6.266667]\''
'\'(14.9-27.8]\'',-0.120635,-0.241619,0.027073,-0.172318,0.962497,-0.047005,0.786458,0.73876,0.794862,-0.220077,0.289552,-0.217957,0.48583,1.003856,1.248493,0.719155,1.354276,-0.357272,-0.357937,-0.71171,'\'(-inf-6.266667]\''
'\'(14.9-27.8]\'',-0.07457,-0.129568,0.104404,-0.181436,0.961708,-0.012597,0.790795,0.751297,0.798891,-0.21934,0.294751,-0.216975,0.507543,1.014774,1.242594,0.727182,1.338091,-0.379648,-0.375117,-0.780728,'\'(-inf-6.266667]\''
'\'(14.9-27.8]\'',-0.091775,-0.163638,0.051729,-0.149874,0.960729,-0.000884,0.791547,0.760714,0.800692,-0.218418,0.307556,-0.21657,0.539817,1.02746,1.249959,0.737142,1.328833,-0.357272,-0.375117,-0.837198,'\'(-inf-6.266667]\''
'\'(14.9-27.8]\'',-0.079565,-0.15001,0.204149,-0.180735,0.963507,-0.005276,0.80189,0.767278,0.810887,-0.218541,0.310619,-0.217841,0.592388,1.045965,1.259156,0.744991,1.324001,-0.375919,-0.395733,-0.881119,'\'(-inf-6.266667]\''
'\'(14.9-27.8]\'',-0.11009,-0.124268,0.439504,-0.111297,0.965906,0.004973,0.809447,0.777575,0.818945,-0.217783,0.31316,-0.216917,0.622841,1.077204,1.24812,0.756195,1.281672,-0.405755,-0.433528,-0.761905,'\'(-inf-6.266667]\''
'\'(14.9-27.8]\'',-0.07346,-0.066728,0.146992,-0.075058,0.969504,0.041576,0.828769,0.785571,0.833078,-0.21934,0.317434,-0.213855,0.646178,1.093781,1.269293,0.774244,1.280172,-0.487804,-0.461016,-0.830924,'\'(-inf-6.266667]\''
'\'(14.9-27.8]\'',0.001466,-0.104584,0.298291,-0.018012,0.972786,0.075984,0.83595,0.792153,0.839274,-0.219012,0.322549,-0.212179,0.675828,1.100716,1.271503,0.75226,1.266728,-0.469156,-0.375117,-0.705435,'\'(-inf-6.266667]\''
'\'(14.9-27.8]\'',0.023111,-0.056129,0.331913,-0.062199,0.97266,0.123569,0.844518,0.80099,0.846051,-0.218131,0.328203,-0.215993,0.704872,1.109291,1.266799,0.756435,1.256437,-0.528828,-0.412912,-0.743082,'\'(-inf-6.266667]\''
'\'(14.9-27.8]\'',-0.029059,-0.100798,0.291567,-0.024792,0.97064,0.139674,0.850547,0.802621,0.851423,-0.217578,0.342741,-0.216628,0.714952,1.118156,1.252968,0.739493,1.24923,-0.454238,-0.316705,-0.140736,'\'(-inf-6.266667]\''
'\'(14.9-27.8]\'',-0.004084,-0.105341,0.47873,0.053063,0.968431,0.190919,0.859491,0.807071,0.859145,-0.215878,0.353864,-0.214606,0.741643,1.128419,1.240947,0.744918,1.18379,-0.461697,-0.292654,-0.052894,'\'(-inf-6.266667]\''
'\'(14.9-27.8]\'',0.104697,-0.068243,0.520197,0.034827,0.961518,0.190919,0.865297,0.810134,0.864151,-0.215325,0.361015,-0.216224,0.765267,1.13567,1.21521,0.743099,1.155674,-0.446779,-0.265166,0.260828,'\'(-inf-6.266667]\''
'\'(14.9-27.8]\'',0.156312,0.07485,0.410365,0.068961,0.955616,0.265591,0.880177,0.813464,0.875781,-0.214915,0.363152,-0.213624,0.766837,1.129977,1.192197,0.76107,1.128658,-0.43932,-0.27891,0.57455,'\'(-inf-6.266667]\''
'\'(14.9-27.8]\'',0.230128,0.086207,1.015564,0.145881,0.950787,0.310979,0.90668,0.819221,0.89553,-0.212621,0.366299,-0.210446,0.7757,1.122513,1.182545,0.764577,1.118541,-0.398296,-0.230806,0.700039,'\'(-inf-6.266667]\''
'\'(14.9-27.8]\'',0.341684,0.152832,0.810469,0.214851,0.944475,0.327085,0.924932,0.821978,0.908289,-0.209242,0.374258,-0.206518,0.792535,1.118055,1.165765,0.757616,1.089928,-0.402025,-0.199883,0.637295,'\'(-inf-6.266667]\''
'\'(14.9-27.8]\'',0.511516,0.305767,0.726413,0.378509,0.935417,0.402488,0.921101,0.826643,0.906061,-0.212048,0.376715,-0.206171,0.794713,1.118634,1.107648,0.742028,1.010169,-0.413214,-0.203319,0.568276,'\'(-inf-6.266667]\''
'\'(14.9-27.8]\'',0.625847,0.427661,1.036858,0.523464,0.921245,0.429575,0.923298,0.831554,0.90835,-0.200865,0.387921,-0.170294,0.81616,1.139603,0.948819,0.712659,0.979511,-0.409484,-0.148343,0.562001,'\'(-inf-6.266667]\''
'\'(14.9-27.8]\'',0.827868,0.619208,1.059272,0.576068,0.906443,0.406881,0.901179,0.835469,0.890158,-0.198448,0.405186,-0.039322,0.884679,1.228801,0.983642,0.645488,0.991201,-0.174526,0.391103,1.164348,'\'(6.266667-10.533333]\''
'\'(14.9-27.8]\'',0.790683,0.573025,1.289024,0.784382,0.882771,0.371741,0.856024,0.840749,0.857863,-0.190091,0.413935,0.137407,0.871022,1.229846,0.937867,0.574214,0.954387,-0.234198,0.504489,1.352581,'\'(6.266667-10.533333]\''
'\'(14.9-27.8]\'',1.137006,0.869052,1.555759,0.991059,0.860804,0.332941,0.835398,0.848074,0.842754,-0.172251,0.443837,0.266877,0.850296,1.225414,0.840342,0.533814,0.865623,-0.633254,0.236484,0.80043,'\'(6.266667-10.533333]\''
'\'(14.9-27.8]\'',1.257442,0.936434,1.73956,1.028467,0.836532,0.267787,0.841686,0.854189,0.843059,-0.176122,0.458039,0.293221,0.833246,1.215662,0.756869,0.560048,0.76554,-0.633254,0.136841,0.869449,'\'(6.266667-10.533333]\''
'\'(14.9-27.8]\'',1.640951,1.163566,2.046642,1.365136,0.812514,0.174814,0.850759,0.860037,0.847882,-0.179317,0.46312,0.206388,0.818305,1.229168,0.737321,0.552674,0.768723,-0.551205,0.116226,1.045133,'\'(6.266667-10.533333]\''
'\'(14.9-27.8]\'',1.880158,1.36117,2.2551,1.436444,0.786475,0.049629,0.848291,0.864879,0.844921,-0.176921,0.474411,0.255842,0.791753,1.229288,0.686465,0.522668,0.745073,-0.465427,0.233048,1.038859,'\'(6.266667-10.533333]\''
'\'(14.9-27.8]\'',2.157105,1.733665,2.273031,1.289151,0.765297,-0.066771,0.850806,0.872677,0.848767,-0.170223,0.475202,0.317024,0.767041,1.237656,0.66135,0.531494,0.73309,-0.506451,0.222741,1.126701,'\'(6.266667-10.533333]\''
'\'(14.9-27.8]\'',2.510644,1.900985,2.631667,1.215505,0.754155,-0.186831,0.854485,0.879962,0.851575,-0.169015,0.484978,0.329676,0.739839,1.259097,0.630014,0.545541,0.679356,-0.450509,0.109354,1.333757,'\'(6.266667-10.533333]\''
'\'(14.9-27.8]\'',2.962973,2.185656,2.176648,1.151211,0.739605,-0.241736,0.875264,0.884611,0.867601,-0.160555,0.486661,0.276872,0.699135,1.248935,0.620058,0.572798,0.661259,-0.424402,-0.08306,1.584735,'\'(6.266667-10.533333]\''
'\'(14.9-27.8]\'',2.964083,2.615691,1.563604,1.002749,0.728716,-0.301034,0.874512,0.889294,0.867906,-0.159798,0.487385,0.271036,0.648328,1.236598,0.657464,0.580339,0.714959,-0.498992,-0.223935,1.515716,'\'(6.266667-10.533333]\''
'\'(14.9-27.8]\'',2.957978,2.706543,2.036556,0.968615,0.722719,-0.374241,0.882962,0.895489,0.875781,-0.16031,0.4873,0.292528,0.609012,1.222618,0.692772,0.611254,0.752623,-0.554935,-0.399169,1.534539,'\'(6.266667-10.533333]\''
'\'(14.9-27.8]\'',3.276551,3.05254,1.866204,0.913906,0.715618,-0.388151,0.887851,0.902695,0.880176,-0.159306,0.487048,0.344755,0.577189,1.195259,0.720263,0.566376,0.788732,-0.603418,-0.49194,1.4216,'\'(6.266667-10.533333]\''
'\'(14.9-27.8]\'',3.413082,3.165348,1.616279,0.810567,0.709779,-0.427683,0.895467,0.907991,0.890524,-0.156684,0.491473,0.422807,0.540025,1.181624,0.72762,0.585173,0.798794,-0.595959,-0.498811,1.434148,'\'(6.266667-10.533333]\''
'\'(27.8-inf)\'',3.472467,3.365981,1.509809,0.663742,0.709653,-0.404989,0.903988,0.914578,0.897361,-0.155599,0.496387,0.473821,0.518038,1.217925,0.740866,0.599418,0.774073,-0.581041,-0.488504,1.440423,'\'(6.266667-10.533333]\''
'\'(27.8-inf)\'',3.516868,3.528001,1.509809,0.623997,0.701762,-0.405721,0.905316,0.918335,0.898949,-0.153591,0.495579,0.474745,0.487303,1.2014,0.752029,0.606812,0.769169,-0.554935,-0.471324,1.559637,'\'(6.266667-10.533333]\''
'\'(27.8-inf)\'',3.549613,3.677151,1.434719,0.597344,0.701573,-0.37717,0.906973,0.927604,0.904962,-0.157299,0.489774,0.45672,0.454641,1.191076,0.787162,0.608678,0.797209,-0.554935,-0.512555,1.653754,'\'(6.266667-10.533333]\''
'\'(27.8-inf)\'',3.565153,3.533301,1.434719,0.625166,0.698511,-0.333977,0.904541,0.936504,0.904901,-0.152158,0.49812,0.526163,0.435999,1.169974,0.798817,0.611223,0.762018,-0.521369,-0.481632,1.616107,'\'(6.266667-10.533333]\''
'\'(27.8-inf)\'',3.656729,3.848256,1.327129,0.552689,0.703561,-0.284928,0.905387,0.944483,0.908777,-0.149679,0.497464,0.505596,0.41911,1.160593,0.82217,0.649862,0.776902,-0.551205,-0.505683,1.622382,'\'(6.266667-10.533333]\''
'\'(27.8-inf)\'',3.680594,4.041318,1.094015,0.546844,0.71161,-0.248325,0.905974,0.949467,0.910273,-0.152322,0.502747,0.467928,0.415788,1.165942,0.834202,0.66499,0.743496,-0.543746,-0.512555,1.672577,'\'(6.266667-10.533333]\''
'\'(27.8-inf)\'',3.551278,3.918667,1.139965,0.501954,0.728117,-0.17951,0.904646,0.952337,0.911158,-0.150048,0.511868,0.466715,0.402593,1.158087,0.880121,0.649256,0.820273,-0.66682,-0.581275,1.402776,'\'(6.266667-10.533333]\''
'\'(27.8-inf)\'',3.556828,3.90731,1.175829,0.507098,0.723887,-0.139246,0.903577,0.958554,0.909998,-0.145644,0.515082,0.460995,0.394621,1.148267,0.887593,0.647469,0.810619,-0.696655,-0.519427,1.277287,'\'(6.266667-10.533333]\''
'\'(27.8-inf)\'',3.449712,3.818729,0.966251,0.501019,0.72092,-0.087269,0.908349,0.958185,0.912349,-0.147201,0.517,0.456315,0.39318,1.136044,0.900606,0.653196,0.837316,-0.756327,-0.595018,1.158073,'\'(6.266667-10.533333]\''
'\'(27.8-inf)\'',3.287096,3.631725,1.596106,0.574899,0.720952,-0.033827,0.912086,0.963504,0.916134,-0.142142,0.525144,0.455969,0.391758,1.132759,0.913141,0.661432,0.828015,-0.842106,-0.715277,0.957291,'\'(6.266667-10.533333]\''
'\'(27.8-inf)\'',3.305411,3.559043,1.342819,0.474366,0.718616,0.015954,0.916223,0.976172,0.918881,-0.138557,0.53031,0.437192,0.389487,1.12493,0.922753,0.677062,0.812624,-0.827188,-0.715277,0.925919,'\'(6.266667-10.533333]\''
'\'(27.8-inf)\'',3.393657,3.607497,1.384286,0.443037,0.727422,0.090625,0.925155,0.979798,0.927702,-0.135649,0.53869,0.437481,0.388002,1.116699,0.9135,0.698153,0.81276,-0.771245,-0.694661,0.8569,'\'(6.266667-10.533333]\''
'\'(27.8-inf)\'',3.439722,3.68245,1.357389,0.346947,0.731462,0.130157,0.931678,0.983259,0.933227,-0.125817,0.542156,0.444068,0.390608,1.11494,0.915917,0.715058,0.790555,-0.700385,-0.625942,0.994938,'\'(6.266667-10.533333]\''
'\'(27.8-inf)\'',3.358136,3.760432,1.187036,0.318891,0.734019,0.118444,0.942044,0.988822,0.939515,-0.124117,0.54781,0.46943,0.397282,1.108908,0.950077,0.728274,0.837613,-0.644443,-0.564095,1.333757,'\'(6.266667-10.533333]\''
'\'(27.8-inf)\'',3.271556,3.568128,1.034616,0.349518,0.73424,0.135282,0.950448,0.991994,0.947879,-0.122151,0.551562,0.487282,0.40192,1.103408,0.942575,0.740894,0.839024,-0.636984,-0.567531,1.402776,'\'(6.266667-10.533333]\''
'\'(27.8-inf)\'',3.150565,3.353867,1.129879,0.231217,0.741152,0.136014,0.958804,1.000211,0.955662,-0.117276,0.562298,0.581857,0.406549,1.084419,0.928348,0.756994,0.829961,-0.569853,-0.546915,1.528265,'\'(6.266667-10.533333]\''
'\'(27.8-inf)\'',3.145569,3.51513,0.975217,0.252259,0.748285,0.246557,0.972297,1.004599,0.966926,-0.111869,0.572057,0.687986,0.415009,1.067451,0.964023,0.774239,0.840711,-0.603418,-0.588146,1.434148,'\'(6.266667-10.533333]\''
'\'(27.8-inf)\'',3.062319,3.378852,0.983062,0.320527,0.758227,0.358564,0.984602,1.012618,0.978861,-0.111767,0.582725,0.746511,0.424966,1.056885,0.952501,0.784926,0.834405,-0.59223,-0.591582,1.490618,'\'(6.266667-10.533333]\''
'\'(27.8-inf)\'',3.167215,3.551471,0.88892,0.329412,0.761604,0.4347,0.992982,1.018414,0.987438,-0.102631,0.594891,0.787299,0.442324,1.049689,0.956765,0.78328,0.840405,-0.66682,-0.674046,1.314934,'\'(6.266667-10.533333]\''
'\'(27.8-inf)\'',3.132804,3.64081,0.983062,0.309539,0.768769,0.514496,0.992982,1.022364,0.986858,-0.098166,0.607343,0.834268,0.448381,1.04582,0.967017,0.799385,0.838663,-0.655631,-0.684353,1.208269,'\'(6.266667-10.533333]\''
'\'(27.8-inf)\'',3.151675,3.58327,0.920301,0.28312,0.770725,0.591363,0.999904,1.028746,0.991681,-0.091489,0.634602,0.85524,0.461677,1.042934,0.983542,0.798627,0.865831,-0.678008,-0.680917,1.220818,'\'(6.266667-10.533333]\''
'\'(27.8-inf)\'',3.190525,3.471976,0.985304,0.268624,0.774892,0.633824,1.008261,1.033566,0.998365,-0.067033,0.665968,0.839584,0.485122,1.040204,1.005807,0.800812,0.890306,-0.88686,-0.818356,0.762784,'\'(6.266667-10.533333]\''
'\'(27.8-inf)\'',3.22882,3.665794,0.864264,0.307201,0.781804,0.687997,1.014032,1.038197,1.002364,-0.066091,0.669367,0.828029,0.493058,1.038143,1.003105,0.822666,0.865432,-0.991285,-0.84928,0.57455,'\'(6.266667-10.533333]\''
'\'(27.8-inf)\'',2.943548,3.312984,1.277816,0.235425,0.7884,0.751687,1.01583,1.048802,1.002425,-0.06435,0.674886,0.828087,0.505765,1.043502,1.027706,0.833979,0.876565,-1.03231,-0.81492,0.68749,'\'(6.266667-10.533333]\''
'\'(27.8-inf)\'',2.890267,3.206989,0.900128,0.173936,0.792724,0.776578,1.020754,1.058367,1.008255,-0.053392,0.683585,0.809368,0.521391,1.047631,1.027288,0.840329,0.836475,-1.073334,-0.893947,0.593374,'\'(6.266667-10.533333]\''
'\'(27.8-inf)\'',2.800911,3.122194,0.855298,0.116656,0.798973,0.81611,1.021389,1.066772,1.009903,-0.056731,0.691595,0.817572,0.53506,1.041834,1.045907,0.843271,0.832111,-1.050957,-0.856151,0.580825,'\'(6.266667-10.533333]\''
'\'(27.8-inf)\'',2.738751,3.038912,0.894524,0.120163,0.810241,0.880532,1.028664,1.073387,1.019671,-0.049337,0.703895,0.82982,0.556956,1.051219,1.067321,0.861801,0.827539,-1.080793,-0.863023,0.568276,'\'(6.266667-10.533333]\''
'\'(27.8-inf)\'',2.66105,2.86175,0.82728,0.052361,0.818542,0.925921,1.034388,1.076206,1.026081,-0.048251,0.712595,0.860786,0.585495,1.06706,1.078672,0.886775,0.822423,-1.080793,-0.893947,0.555727,'\'(6.266667-10.533333]\''
'\'(27.8-inf)\'',2.596114,2.857207,0.760035,0.068026,0.826117,0.948615,1.040006,1.083975,1.031576,-0.044011,0.719999,0.838139,0.593145,1.06976,1.059971,0.894028,0.755661,-1.02858,-0.863023,0.662392,'\'(6.266667-10.533333]\''
'\'(27.8-inf)\'',2.538394,2.778468,0.860902,0.138867,0.828547,0.963989,1.044472,1.090897,1.03536,-0.042065,0.729018,0.829242,0.615054,1.067901,1.085512,0.885536,0.787347,-1.039769,-0.876767,0.580825,'\'(6.266667-10.533333]\''
'\'(27.8-inf)\'',2.548939,2.982129,1.004356,0.10029,0.831956,0.983023,1.038901,1.098791,1.032125,-0.038194,0.736287,0.815781,0.627771,1.067161,1.093229,0.881894,0.810653,-1.099441,-0.917999,0.411415,'\'(6.266667-10.533333]\''
'\'(27.8-inf)\'',2.62442,2.988186,0.780209,0.126943,0.834449,0.96106,1.03668,1.112572,1.03066,-0.034282,0.748066,0.81711,0.651571,1.061596,1.093869,0.863735,0.800434,-1.159113,-0.935179,0.298475,'\'(6.266667-10.533333]\''
'\'(27.8-inf)\'',2.488999,2.837522,0.9797,0.095614,0.839026,0.949347,1.037455,1.122319,1.031698,-0.026151,0.756933,0.833864,0.671209,1.058618,1.101071,0.873063,0.801845,-1.248621,-0.986718,0.242005,'\'(6.266667-10.533333]\''
'\'(27.8-inf)\'',2.436828,2.710329,0.785812,0.099121,0.844739,0.956668,1.053063,1.12545,1.041374,-0.018142,0.76883,0.835539,0.686086,1.059475,1.086341,0.898344,0.781347,-1.218785,-0.972974,0.354945,'\'(6.266667-10.533333]\''
'\'(27.8-inf)\'',2.373557,2.611148,0.794778,0.1391,0.850388,0.916404,1.065956,1.130554,1.050165,-0.011485,0.782325,0.803302,0.696688,1.061588,1.084428,0.914842,0.769428,-1.215055,-0.997026,0.373768,'\'(6.266667-10.533333]\''
'\'(27.8-inf)\'',2.378553,2.669445,0.839608,0.07691,0.855154,0.845393,1.073278,1.13406,1.058742,-0.004624,0.793464,0.813066,0.715076,1.059782,1.095878,0.913865,0.76953,-1.222514,-1.086361,0.380043,'\'(6.266667-10.533333]\''
'\'(27.8-inf)\'',2.248681,2.530895,0.746586,0.230048,0.860109,0.900298,1.068707,1.136555,1.056758,-0.000302,0.805075,0.833286,0.724644,1.076204,1.109842,0.925435,0.788672,-1.211326,-1.110413,0.317298,'\'(6.266667-10.533333]\''
'\'(27.8-inf)\'',2.292527,2.502883,0.886679,0.032489,0.867968,0.933242,1.068377,1.14117,1.0563,0.003692,0.825705,0.850098,0.746168,1.073392,1.120205,0.932672,0.78815,-1.155383,-1.069181,0.361219,'\'(6.266667-10.533333]\''
'\'(27.8-inf)\'',2.260891,2.437014,1.126517,0.004433,0.873744,0.967649,1.07376,1.145676,1.061825,0.006969,0.829608,0.888113,0.759418,1.078915,1.119657,0.950131,0.786174,-1.099441,-1.034822,0.492983,'\'(6.266667-10.533333]\''
'\'(27.8-inf)\'',2.197066,2.444586,0.772363,0.004433,0.882834,1.001325,1.088546,1.148444,1.072172,0.005372,0.832806,0.947966,0.76738,1.075116,1.137045,0.974609,0.806183,-1.062146,-0.99359,0.530629,'\'(6.266667-10.533333]\''
'\'(27.8-inf)\'',2.161546,2.347676,0.802623,-0.001178,0.887379,1.013038,1.080847,1.1569,1.068326,0.006887,0.842279,0.999789,0.776975,1.072447,1.151982,0.95948,0.829209,-1.050957,-0.99359,0.524355,'\'(6.266667-10.533333]\''
'\'(27.8-inf)\'',2.177086,2.275751,0.894524,-0.022454,0.893186,0.989611,1.075147,1.156537,1.065366,0.012745,0.846906,1.044101,0.786857,1.074794,1.148189,0.94907,0.817345,-1.125547,-1.082925,0.392592,'\'(6.266667-10.533333]\''
'\'(27.8-inf)\'',2.128245,2.184142,0.584079,-0.020116,0.900193,1.01743,1.076275,1.152507,1.067502,0.016555,0.852678,1.104879,0.790201,1.070659,1.15166,0.961853,0.812629,-1.065875,-1.034822,0.524355,'\'(6.266667-10.533333]\''
'\'(27.8-inf)\'',2.071635,2.190199,0.830642,-0.034845,0.906001,1.040124,1.082763,1.163703,1.073973,0.016043,0.86237,1.153755,0.804602,1.070654,1.158463,0.968353,0.825869,-0.924155,-0.876767,0.769058,'\'(6.266667-10.533333]\''
'\'(27.8-inf)\'',1.970624,2.116759,0.737621,-0.028299,0.909536,1.042321,1.088111,1.167806,1.077606,0.020406,0.868966,1.205404,0.817261,1.065565,1.146494,0.980618,0.783612,-0.898048,-0.8321,0.944742,'\'(6.266667-10.533333]\''
'\'(27.8-inf)\'',1.928443,2.145529,0.647962,-0.087216,0.917584,1.063551,1.094645,1.180082,1.08194,0.022249,0.878743,1.267799,0.818937,1.060049,1.168367,0.977603,0.80504,-0.823458,-0.79774,1.051408,'\'(6.266667-10.533333]\''
'\'(27.8-inf)\'',1.904023,2.021364,0.651324,-0.177929,0.923107,1.070139,1.09568,1.186458,1.083222,0.029254,0.888906,1.31864,0.827259,1.059775,1.18803,0.979448,0.818068,-0.786163,-0.78056,1.095329,'\'(6.266667-10.533333]\''
'\'(27.8-inf)\'',1.810782,1.939597,0.593045,0.030151,0.930051,1.068675,1.097149,1.188141,1.087099,0.038614,0.909805,1.377915,0.838946,1.058245,1.183689,0.986528,0.832306,-0.827188,-0.835536,0.96984,'\'(6.266667-10.533333]\''
'\'(27.8-inf)\'',1.797462,1.953225,0.533646,-0.111531,0.938731,1.061355,1.102214,1.187567,1.091464,0.040171,0.911269,1.432858,0.849963,1.061569,1.193108,0.992601,0.832332,-0.789893,-0.811484,1.038859,'\'(6.266667-10.533333]\''
'\'(27.8-inf)\'',1.687571,1.817703,0.487696,-0.028299,0.94053,1.050373,1.109489,1.188345,1.096592,0.047422,0.92219,1.451865,0.869694,1.062622,1.201095,1.004364,0.863737,-0.793622,-0.811484,1.145524,'\'(6.266667-10.533333]\''
'\'(27.8-inf)\'',1.557145,1.623885,0.359932,-0.118311,0.946463,1.086245,1.116177,1.196114,1.102696,0.055594,0.933935,1.45822,0.885145,1.064781,1.186879,0.987375,0.79508,-0.842106,-0.876767,1.132975,'\'(6.266667-10.533333]\''
'\'(27.8-inf)\'',1.612646,1.757135,0.538129,-0.078565,0.951229,1.122849,1.119221,1.202638,1.104101,0.058892,0.944973,1.518824,0.926147,1.070529,1.214903,1.014418,0.842772,-0.857024,-0.907691,1.038859,'\'(6.266667-10.533333]\''
'\'(27.8-inf)\'',1.618751,1.697324,0.505628,-0.145198,0.959846,1.153596,1.124874,1.208742,1.108832,0.062804,0.951014,1.549155,0.942771,1.079308,1.25178,1.037902,0.869673,-0.88313,-0.921435,1.038859,'\'(6.266667-10.533333]\''
'\'(27.8-inf)\'',1.377878,1.526976,0.299412,-0.137015,0.969693,1.209233,1.130045,1.214703,1.114082,0.067904,0.958569,1.575038,0.964684,1.086724,1.254881,1.060457,0.853726,-0.935343,-0.97641,1.02631,'\'(-inf-6.266667]\''
'\'(27.8-inf)\'',1.269097,1.43688,0.276997,-0.178864,0.976479,1.220947,1.135334,1.220398,1.118966,0.070178,0.969422,1.563945,0.97974,1.091205,1.270126,1.064151,0.848419,-0.965179,-1.024514,0.932193,'\'(6.266667-10.533333]\''
'\'(27.8-inf)\'',1.176967,1.252147,0.355449,-0.180267,0.987115,1.254622,1.139013,1.225655,1.122201,0.076711,0.978711,1.585437,0.996265,1.101037,1.282643,1.069649,0.848457,-0.931614,-1.01077,0.951017,'\'(-inf-6.266667]\''
'\'(27.8-inf)\'',1.173637,1.267289,0.338638,-0.23521,0.994185,1.285369,1.142151,1.229502,1.126414,0.080828,0.987915,1.608777,1.018855,1.103975,1.290711,1.073693,0.852986,-0.965179,-1.034822,0.919644,'\'(-inf-6.266667]\''
'\'(27.8-inf)\'',1.090941,1.132524,0.312861,-0.234041,1.000371,1.297082,1.141704,1.230508,1.126047,0.070526,0.99197,1.658405,1.039804,1.11016,1.284671,1.090938,0.829854,-0.995015,-1.048565,0.844351,'\'(-inf-6.266667]\''
'\'(27.8-inf)\'',1.04765,1.124953,0.504507,-0.266772,1.009651,1.33149,1.141904,1.236475,1.127085,0.085724,0.998903,1.643499,1.056858,1.112253,1.296125,1.08472,0.848143,-0.983826,-1.01077,0.91337,'\'(-inf-6.266667]\''
'\'(27.8-inf)\'',0.99548,1.082555,0.213115,-0.295997,1.017036,1.294154,1.141352,1.240266,1.1262,0.089656,1.011321,1.615941,1.063127,1.113143,1.296843,1.093676,0.83319,-1.054687,-1.048565,0.769058,'\'(-inf-6.266667]\''
'\'(27.8-inf)\'',0.95996,1.034101,0.328551,-0.282671,1.026284,1.288297,1.136098,1.249643,1.123361,0.091254,1.01817,1.517091,1.088512,1.116795,1.320408,1.1,0.914641,-1.054687,-1.014206,0.787881,'\'(-inf-6.266667]\''
'\'(27.8-inf)\'',0.871714,1.012145,0.23553,-0.31587,1.034932,1.266335,1.127507,1.261328,1.118142,0.1051,1.032254,1.577233,1.115797,1.123197,1.321048,1.084307,0.901524,-1.10317,-1.031386,0.693765,'\'(-inf-6.266667]\''
'\'(27.8-inf)\'',0.917224,0.993217,0.234409,-0.301374,1.041371,1.207037,1.109819,1.260686,1.103917,0.105059,1.046876,1.624954,1.138378,1.131746,1.290596,1.074367,0.906317,-1.226244,-1.131028,0.492983,'\'(-inf-6.266667]\''
'\'(27.8-inf)\'',0.828423,0.905393,0.14363,-0.237548,1.049545,1.11992,1.116812,1.259265,1.109137,0.119315,1.06653,1.522926,1.158773,1.14448,1.266329,1.068677,0.888475,-1.170301,-1.110413,0.555727,'\'(-inf-6.266667]\''
'\'(27.8-inf)\'',0.715202,0.817569,0.217598,-0.318208,1.052575,1.003521,1.124263,1.269733,1.114723,0.114399,1.06621,1.632753,1.190176,1.163874,1.253386,1.10279,0.935423,-1.159113,-1.100105,0.593374,'\'(-inf-6.266667]\''
'\'(27.8-inf)\'',0.639722,0.831197,0.263548,-0.308856,1.061192,0.891514,1.127154,1.286095,1.117348,0.114706,1.071915,1.649392,1.208055,1.169459,1.232609,1.107091,0.899008,-1.203867,-1.120721,0.524355,'\'(-inf-6.266667]\''
'\'(27.8-inf)\'',0.699662,0.788042,0.44847,-0.364967,1.071986,0.736314,1.13631,1.291329,1.12446,0.109708,1.076525,1.585841,1.226856,1.174997,1.215658,1.124832,0.892239,-1.03231,-0.979846,0.68749,'\'(-inf-6.266667]\''
'\'(27.8-inf)\'',0.589216,0.52987,0.320706,-0.366136,1.077383,0.698978,1.14402,1.288982,1.130229,0.117184,1.083357,1.568625,1.247695,1.186191,1.204233,1.125282,0.887761,-0.953991,-0.897383,0.781607,'\'(-inf-6.266667]\''
'\'(27.8-inf)\'',0.49431,0.503371,0.125698,-0.347433,1.086284,0.616254,1.148451,1.292522,1.132946,0.121342,1.090693,1.592659,1.259536,1.192976,1.227568,1.146137,0.951213,-0.968909,-0.873331,0.756509,'\'(-inf-6.266667]\''
'\'(27.8-inf)\'',0.530386,0.537441,0.245617,-0.359356,1.090513,0.517424,1.148439,1.290584,1.133159,0.117082,1.098181,1.605831,1.276757,1.20197,1.221173,1.145651,0.953125,-1.009933,-0.876767,0.656118,'\'(-inf-6.266667]\''
'\'(14.9-27.8]\'',0.462675,0.480658,0.183976,-0.386009,1.095247,0.425183,1.142151,1.296472,1.129039,0.121936,1.108462,1.63154,1.291325,1.211721,1.21068,1.135294,0.938193,-0.998744,-0.825228,0.656118,'\'(-inf-6.266667]\''
'\'(14.9-27.8]\'',0.468225,0.505642,0.187338,-0.397699,1.104842,0.351243,1.144913,1.313709,1.129039,0.117819,1.117095,1.650027,1.309695,1.221609,1.193037,1.129159,0.91985,-1.043498,-0.825228,0.605923,'\'(-inf-6.266667]\''
'\'(27.8-inf)\'',0.471,0.463244,0.208632,-0.390685,1.11207,0.246557,1.148251,1.322484,1.130901,0.129433,1.132474,1.618945,1.329353,1.241534,1.166401,1.137572,0.907621,-1.002474,-0.783996,0.725137,'\'(-inf-6.266667]\''
'\'(27.8-inf)\'',0.47766,0.503371,0.090955,-0.378995,1.12056,0.18067,1.145242,1.325365,1.128398,0.135926,1.144455,1.520211,1.338041,1.254922,1.148285,1.147219,0.880771,-1.036039,-0.783996,0.637295,'\'(-inf-6.266667]\''
'\'(27.8-inf)\'',0.39885,0.468544,0.201908,-0.338782,1.124758,0.073055,1.143961,1.333674,1.129619,0.13611,1.167558,1.495311,1.351575,1.266134,1.166494,1.133198,0.93886,-1.024851,-0.787432,0.480434,'\'(-inf-6.266667]\''
'\'(27.8-inf)\'',0.45213,0.520784,0.086472,-0.398868,1.130976,-0.088001,1.140247,1.349177,1.128062,0.14334,1.179707,1.541414,1.380326,1.281004,1.1474,1.152278,0.930536,-1.039769,-0.825228,0.260828,'\'(-inf-6.266667]\''
'\'(27.8-inf)\'',0.48876,0.58211,0.065178,-0.415234,1.139024,-0.228559,1.148991,1.353729,1.135021,0.146474,1.188255,1.556377,1.417873,1.295651,1.119284,1.145688,0.891798,-1.091982,-0.897383,0.342396,'\'(-inf-6.266667]\''
'\'(27.8-inf)\'',0.47655,0.518513,0.024831,-0.402375,1.145115,-0.316408,1.15971,1.362379,1.144789,0.155138,1.201548,1.541645,1.437406,1.305391,1.130905,1.158219,0.938457,-1.166572,-1.014206,0.285926,'\'(-inf-6.266667]\''
'\'(14.9-27.8]\'',0.290624,0.350436,0.172769,-0.362629,1.146536,-0.397668,1.16635,1.369438,1.149673,0.162655,1.212822,1.520615,1.455136,1.320362,1.122666,1.164678,0.920951,-1.155383,-1.052001,0.285926,'\'(-inf-6.266667]\''
'\'(27.8-inf)\'',0.335579,0.396619,0.095438,-0.405882,1.1543,-0.470875,1.174166,1.378548,1.154923,0.163823,1.222986,1.51426,1.458699,1.332748,1.140305,1.189485,0.960628,-1.211326,-1.103541,0.172986,'\'(-inf-6.266667]\''
'\'(14.9-27.8]\'',0.369989,0.364064,0.192942,-0.433236,1.166104,-0.502354,1.172744,1.391897,1.155442,0.163741,1.232123,1.48364,1.467651,1.345685,1.144513,1.187143,0.952746,-1.293374,-1.210056,0.07887,'\'(-inf-6.266667]\''
'\'(14.9-27.8]\'',0.313379,0.384506,0.271394,-0.414065,1.170586,-0.537494,1.177962,1.417932,1.159624,0.177812,1.246291,1.509176,1.459642,1.35885,1.14072,1.187964,0.95977,-1.278456,-1.203184,0.110242,'\'(-inf-6.266667]\''
'\'(14.9-27.8]\'',0.343349,0.356493,0.199666,-0.470176,1.180212,-0.549939,1.185379,1.422455,1.165332,0.179614,1.256438,1.462495,1.482971,1.370104,1.137482,1.204216,0.951314,-1.244891,-1.179132,0.154163,'\'(-inf-6.266667]\''
'\'(14.9-27.8]\'',0.353894,0.366335,0.182855,-0.45007,1.183337,-0.558724,1.192019,1.422075,1.171498,0.182154,1.268772,1.367863,1.502676,1.382858,1.140017,1.208349,0.929228,-1.207596,-1.15508,0.235731,'\'(-inf-6.266667]\''
'\'(14.9-27.8]\'',0.263428,0.30501,0.059574,-0.497063,1.18703,-0.534565,1.195369,1.423012,1.172505,0.185247,1.281139,1.401198,1.506436,1.389845,1.125975,1.208585,0.884136,-1.077064,-1.041693,0.467885,'\'(-inf-6.266667]\''
'\'(14.9-27.8]\'',0.334469,0.301224,0.00802,-0.466903,1.194131,-0.537494,1.20255,1.426564,1.177694,0.184899,1.288728,1.344464,1.499832,1.392989,1.151745,1.236871,0.948616,-1.002474,-1.000462,0.605923,'\'(-inf-6.266667]\''
'\'(14.9-27.8]\'',0.313379,0.305767,-0.085001,-0.505246,1.201075,-0.527245,1.214079,1.431935,1.189293,0.195898,1.301281,1.381382,1.498148,1.40359,1.143425,1.263559,0.894462,-1.054687,-1.058873,0.499257,'\'(-inf-6.266667]\''
'\'(14.9-27.8]\'',0.186838,0.258069,0.021469,-0.56954,1.208019,-0.469411,1.21864,1.44134,1.193414,0.19811,1.312488,1.468562,1.498229,1.408814,1.129354,1.26289,0.832353,-1.043498,-1.065745,0.486708,'\'(-inf-6.266667]\''
'\'(14.9-27.8]\'',0.113022,0.162674,-0.043534,-0.553175,1.211838,-0.4372,1.2173,1.444443,1.191857,0.207511,1.322819,1.532054,1.476126,1.413633,1.152064,1.259702,0.8556,-1.021121,-1.052001,0.442787,'\'(-inf-6.266667]\''
'\'(14.9-27.8]\'',0.105252,0.186902,-0.044654,-0.580996,1.218308,-0.374241,1.220837,1.44059,1.197657,0.207245,1.332242,1.512065,1.479382,1.42297,1.188792,1.268074,0.89433,-1.073334,-1.089797,0.260828,'\'(-inf-6.266667]\''
'\'(14.9-27.8]\'',0.165192,0.195987,-0.156728,-0.528626,1.22481,-0.333977,1.218616,1.440442,1.196344,0.22021,1.340992,1.484738,1.484302,1.432148,1.19199,1.254895,0.911054,-1.080793,-1.096669,0.254554,'\'(-inf-6.266667]\''
'\'(14.9-27.8]\'',0.039761,0.145261,-0.208282,-0.486542,1.231217,-0.309819,1.220485,1.44903,1.198908,0.221787,1.344661,1.478036,1.486119,1.438937,1.199725,1.267311,0.891912,-1.144195,-1.158516,0.103967,'\'(-inf-6.266667]\''
'\'(14.9-27.8]\'',0.133002,0.19523,-0.093967,-0.47345,1.237182,-0.287125,1.221425,1.459185,1.200038,0.226048,1.354235,1.49687,1.490395,1.449184,1.190454,1.267097,0.876467,-1.136736,-1.151644,0.116516,'\'(-inf-6.266667]\''
'\'(14.9-27.8]\'',0.164082,0.170245,-0.050258,-0.487711,1.241822,-0.26077,1.232473,1.464414,1.206875,0.233319,1.364196,1.563079,1.500111,1.455127,1.173644,1.271962,0.866074,-1.162842,-1.179132,0.041223,'\'(-inf-6.266667]\''
'\'(14.9-27.8]\'',0.115797,0.167217,-0.229576,-0.372449,1.244599,-0.249057,1.247188,1.464363,1.21826,0.229591,1.372341,1.542569,1.523325,1.45835,1.177934,1.322672,0.861782,-1.162842,-1.182568,0.041223,'\'(-inf-6.266667]\''
'\'(14.9-27.8]\'',0.019781,0.111191,-0.166815,-0.513429,1.249113,-0.235147,1.249432,1.467096,1.222259,0.237845,1.382319,1.516802,1.535655,1.471736,1.223867,1.324674,0.89611,-1.174031,-1.175696,0.141614,'\'(-inf-6.266667]\''
'\'(14.9-27.8]\'',0.043091,0.096049,-0.25087,-0.487711,1.256151,-0.202936,1.257166,1.467778,1.226654,0.241553,1.387804,1.56175,1.527393,1.482973,1.23349,1.349977,0.876837,-1.185219,-1.192876,0.129065,'\'(-inf-6.266667]\''
'\'(14.9-27.8]\'',-0.027949,0.04078,-0.161211,-0.511792,1.260885,-0.186831,1.263289,1.47403,1.231111,0.239627,1.397715,1.528992,1.526566,1.491498,1.242291,1.363757,0.89306,-1.207596,-1.210056,0.072595,'\'(-inf-6.266667]\''
'\'(14.9-27.8]\'',-0.0446,0.003682,-0.240784,-0.546161,1.265209,-0.157548,1.275677,1.484862,1.242649,0.249152,1.399297,1.513856,1.532253,1.501388,1.24222,1.352407,0.912316,-1.192678,-1.196312,0.116516,'\'(-inf-6.266667]\''
'\'(14.9-27.8]\'',-0.10676,-0.022816,-0.243025,-0.612793,1.277645,-0.093125,1.283551,1.489425,1.249273,0.241409,1.405372,1.531361,1.534499,1.509579,1.251351,1.366082,0.88044,-1.091982,-1.110413,0.285926,'\'(-inf-6.266667]\''
'\'(14.9-27.8]\'',-0.198891,-0.088684,-0.120865,-0.590348,1.284778,-0.03822,1.284116,1.497825,1.252569,0.250852,1.414912,1.499875,1.548103,1.515407,1.268464,1.366495,0.884536,-1.073334,-1.065745,0.216907,'\'(-inf-6.266667]\''
'\'(14.9-27.8]\'',-0.130625,-0.065971,-0.12983,-0.610455,1.28926,0.010829,1.291755,1.500661,1.259956,0.250155,1.417925,1.457411,1.60256,1.523245,1.311425,1.366725,0.961878,-1.080793,-1.055437,0.122791,'\'(-inf-6.266667]\''
'\'(14.9-27.8]\'',-0.183906,-0.17348,-0.188109,-0.611624,1.299296,0.040844,1.298395,1.506151,1.265298,0.248455,1.427297,1.427196,1.610218,1.522277,1.275374,1.407517,0.843715,-1.024851,-1.000462,0.185535,'\'(-inf-6.266667]\''
'\'(14.9-27.8]\'',-0.118415,-0.044015,-0.274406,-0.605311,1.306209,0.084769,1.301052,1.515619,1.267984,0.248496,1.437444,1.413157,1.632245,1.530217,1.306633,1.398466,0.890659,-1.039769,-1.000462,0.066321,'\'(-inf-6.266667]\''
'\'(14.9-27.8]\'',-0.042379,-0.03493,-0.342771,-0.666566,1.308134,0.078912,1.303355,1.510146,1.271281,0.25333,1.443215,1.394554,1.648871,1.536205,1.311462,1.413694,0.886537,-1.073334,-1.014206,-0.002698,'\'(-inf-6.266667]\''
'\'(14.9-27.8]\'',-0.12008,-0.132596,-0.425705,-0.671242,1.316308,0.129425,1.308632,1.504616,1.273448,0.254723,1.451578,1.375027,1.655323,1.537499,1.337458,1.415277,0.920254,-1.069605,-1.021078,-0.002698,'\'(-inf-6.266667]\''
'\'(14.9-27.8]\'',-0.11675,-0.084142,-0.424585,-0.686673,1.318802,0.143334,1.314732,1.508969,1.279858,0.256464,1.457535,1.360757,1.675479,1.548271,1.339135,1.40515,0.920377,-1.03231,-0.983282,0.041223,'\'(-inf-6.266667]\''
'\'(14.9-27.8]\'',-0.12785,-0.086413,-0.302424,-0.650201,1.324104,0.158708,1.321666,1.512453,1.285261,0.262219,1.459571,1.338283,1.705763,1.553062,1.332691,1.430803,0.919251,-0.972638,-0.917999,-0.015247,'\'(-inf-6.266667]\''
'\'(14.9-27.8]\'',-0.203886,-0.177265,-0.339408,-0.59292,1.326976,0.122836,1.319574,1.523609,1.286329,0.256976,1.462835,1.312516,1.73528,1.556186,1.33576,1.443543,0.932342,-0.942802,-0.866459,-0.040345,'\'(-inf-6.266667]\''
'\'(14.9-27.8]\'',-0.14339,-0.118211,-0.086122,-0.59596,1.333036,0.173349,1.321608,1.530457,1.288496,0.270023,1.48333,1.268839,1.771798,1.561592,1.336962,1.392639,0.927014,-1.017392,-0.897383,-0.266224,'\'(-inf-6.266667]\''
'\'(14.9-27.8]\'',-0.183351,-0.132596,-0.145521,-0.60461,1.340927,0.188723,1.319187,1.536981,1.286878,0.26861,1.494015,1.237757,1.799393,1.571246,1.311599,1.399574,0.891912,-1.050957,-0.900819,-0.423085,'\'(-inf-6.266667]\''
'\'(14.9-27.8]\'',-0.178356,-0.135625,-0.378634,-0.605779,1.341116,0.182866,1.328095,1.538073,1.292617,0.270289,1.499922,1.24157,1.805959,1.578645,1.29181,1.406425,0.900249,-1.10317,-0.95923,-0.441909,'\'(-inf-6.266667]\''
'\'(14.9-27.8]\'',-0.182241,-0.15001,-0.277768,-0.655812,1.348376,0.174082,1.339355,1.545188,1.299729,0.265394,1.507494,1.257747,1.813049,1.58563,1.292217,1.445832,0.915431,-1.110629,-0.997026,-0.510928,'\'(-inf-6.266667]\''
'\'(14.9-27.8]\'',-0.269377,-0.175751,-0.263198,-0.665397,1.357781,0.15578,1.350591,1.554042,1.308611,0.275943,1.512256,1.202978,1.803351,1.593524,1.271443,1.446098,0.858068,-1.140465,-1.045129,-0.548574,'\'(-inf-6.266667]\''
'\'(14.9-27.8]\'',-0.230526,-0.123511,-0.627438,-0.624483,1.358665,0.145531,1.351331,1.564778,1.310901,0.275799,1.528729,1.178597,1.808226,1.60619,1.276728,1.474307,0.874457,-1.147924,-1.069181,-0.611319,'\'(-inf-6.266667]\''
'\'(14.9-27.8]\'',-0.183351,-0.09777,-0.34165,-0.593154,1.365545,0.119176,1.350355,1.569813,1.312396,0.284586,1.548753,1.196103,1.815082,1.613065,1.281351,1.476972,0.908416,-1.241162,-1.127592,-0.812101,'\'(-inf-6.266667]\''
'\'(14.9-27.8]\'',-0.207216,-0.178023,-0.312511,-0.671242,1.368607,0.073788,1.357278,1.581003,1.316609,0.290813,1.562568,1.187725,1.823753,1.618016,1.261484,1.497039,0.889567,-1.289645,-1.18944,-0.830924,'\'(-inf-6.266667]\''
'\'(14.9-27.8]\'',-0.218871,-0.155309,-0.44812,-0.659552,1.376024,0.001312,1.360028,1.597757,1.318074,0.287658,1.576231,1.194138,1.846211,1.621794,1.290193,1.515172,0.905152,-1.405259,-1.330314,-0.92504,'\'(-inf-6.266667]\''
'\'(14.9-27.8]\'',-0.174471,-0.093984,-0.411136,-0.666566,1.382147,-0.011133,1.364659,1.603713,1.319997,0.297265,1.592503,1.154448,1.854468,1.629269,1.278301,1.498037,0.8726,-1.386612,-1.31657,-0.837198,'\'(-inf-6.266667]\''
'\'(14.9-27.8]\'',-0.162261,-0.129568,-0.392083,-0.653708,1.385145,-0.026507,1.37318,1.630554,1.325613,0.30388,1.61537,1.183392,1.854123,1.639639,1.246017,1.505175,0.85144,-1.394071,-1.313134,-0.692886,'\'(-inf-6.266667]\''
'\'(14.9-27.8]\'',-0.223311,-0.192408,-0.435792,-0.596895,1.39171,-0.108499,1.381689,1.64125,1.328879,0.307219,1.633813,1.219674,1.852849,1.655298,1.266802,1.523815,0.917411,-1.375423,-1.306262,-0.454458,'\'(-inf-6.266667]\''
'\'(14.9-27.8]\'',-0.267712,-0.20755,-0.365185,-0.542654,1.395719,-0.183902,1.390516,1.655798,1.337518,0.319713,1.645776,1.283745,1.838313,1.675087,1.25913,1.532443,0.883359,-1.394071,-1.326878,-0.423085,'\'(-inf-6.266667]\''
'\'(14.9-27.8]\'',-0.241626,-0.216635,-0.401049,-0.638511,1.403167,-0.282732,1.396357,1.661362,1.340936,0.316784,1.657353,1.293046,1.834883,1.682702,1.236743,1.528539,0.851525,-1.420177,-1.364674,-0.48583,'\'(-inf-6.266667]\''
'\'(14.9-27.8]\'',-0.333202,-0.266604,-0.369668,-0.663293,1.411405,-0.246861,1.397802,1.667687,1.34466,0.319201,1.6658,1.299921,1.828221,1.6908,1.249126,1.529642,0.892201,-1.479849,-1.419649,-0.667789,'\'(-inf-6.266667]\''
'\'(14.9-27.8]\'',-0.318772,-0.243891,-0.29682,9.273343,1.367313,-0.289321,1.384004,1.677781,1.335839,0.373459,1.754444,1.547538,2.09351,1.704565,1.098651,1.284002,0.673255,-1.390341,-1.186004,-0.467006,'\'(-inf-6.266667]\''
'\'(-inf-14.9]\'',-0.447533,-0.418025,5.554552,20.158963,0.721204,-0.711727,1.359981,1.6893,1.322561,0.483715,1.924731,2.103201,2.534801,1.715071,0.620302,0.932333,0.21016,-1.610381,-1.240979,-0.234852,'\'(10.533333-inf)\''
'\'(-inf-14.9]\'',-0.161151,-0.238591,14.229062,8.51654,0.803771,-0.887425,1.357278,1.702837,1.325522,2.824266,2.067356,2.279121,2.675167,1.712358,0.669511,1.336912,0.355899,-1.584275,-1.302827,-0.228578,'\'(10.533333-inf)\''
'\'(-inf-14.9]\'',0.429375,-0.081113,10.548559,5.322162,0.949935,-0.9987,1.371852,1.712584,1.335259,2.890424,2.115766,2.193848,2.540672,1.710383,0.879125,1.543793,0.692507,-1.606652,-1.409341,-0.209754,'\'(10.533333-inf)\''
'\'(14.9-27.8]\'',3.059544,0.061979,3.401614,4.823004,0.99993,-1.074104,1.387248,1.722859,1.345362,2.932863,2.142168,2.019661,2.455396,1.718609,1.002339,1.586989,0.873616,-1.718537,-1.522728,-0.285048,'\'(6.266667-10.533333]\''
'\'(14.9-27.8]\'',3.129474,0.128605,1.115309,2.666921,1.049293,-1.127545,1.398578,1.724263,1.355222,2.956991,2.153324,2.081536,2.4044,1.715588,1.036599,1.610144,0.90723,-1.677512,-1.536472,-0.266224,'\'(6.266667-10.533333]\''
'\'(14.9-27.8]\'',2.699345,0.74413,0.700636,2.336565,1.079308,-1.137062,1.406582,1.724405,1.360075,3.01428,2.192413,2.123653,2.336691,1.712674,1.035193,1.665364,0.849328,-1.655135,-1.505548,-0.247401,'\'(6.266667-10.533333]\''
'\'(14.9-27.8]\'',2.06331,1.611771,0.260186,2.073075,1.101118,-1.172201,1.410366,1.713016,1.361906,3.055511,2.218444,2.144914,2.259868,1.707923,1.058665,1.65393,0.855289,-1.640217,-1.478061,-0.178382,'\'(6.266667-10.533333]\''
'\'(14.9-27.8]\'',1.837978,1.863887,0.370019,1.866632,1.10964,-1.189771,1.417324,1.710879,1.365539,3.108355,2.256775,2.246537,2.185205,1.698577,1.074479,1.626898,0.860473,-1.658865,-1.526164,-0.128187,'\'(6.266667-10.533333]\''
'\'(14.9-27.8]\'',1.688681,1.896442,0.262428,2.266426,1.103864,-1.17513,1.430652,1.706895,1.379732,3.151245,2.282705,2.31211,2.12642,1.691773,1.120779,1.650972,0.944694,-1.673783,-1.574268,-0.09054,'\'(6.266667-10.533333]\''
'\'(14.9-27.8]\'',1.59988,1.945654,0.405882,2.224576,1.115384,-1.28128,1.437633,1.717739,1.391728,3.204622,2.320818,2.336085,2.09173,1.700008,1.14334,1.759051,0.960956,-1.602922,-1.54678,0.003576,'\'(6.266667-10.533333]\''
'\'(14.9-27.8]\'',1.678691,2.029693,0.11449,1.884166,1.131449,-1.308367,1.448611,1.727292,1.403572,3.257999,2.360698,2.450939,2.119014,1.696122,1.020974,1.684119,0.858357,-1.509685,-1.484933,0.122791,'\'(-inf-6.266667]\''
'\'(27.8-inf)\'',1.702556,2.050891,-0.154487,1.483203,1.157456,-1.191235,1.463584,1.730065,1.420696,3.311007,2.398844,2.677526,2.120909,1.692935,1.120372,1.990816,0.910867,-1.382882,-1.374982,0.348671,'\'(-inf-6.266667]\''
'\'(27.8-inf)\'',1.567135,1.983509,-0.138796,1.107958,1.168976,-1.186111,1.484481,1.732606,1.43901,3.385092,2.455786,2.794863,2.08397,1.691693,1.125509,2.018931,0.888092,-1.435095,-1.423085,0.361219,'\'(-inf-6.266667]\''
'\'(27.8-inf)\'',1.390089,1.699595,0.079747,0.547779,1.182264,-1.165613,1.505389,1.73002,1.455859,3.444142,2.501016,2.794748,2.068573,1.688367,1.157152,1.999705,0.916238,-1.412718,-1.416213,0.361219,'\'(-inf-6.266667]\''
'\'(27.8-inf)\'',1.56325,1.912341,0.075265,0.269793,1.207387,-1.148043,1.532492,1.725371,1.473075,3.456554,2.5081,2.78614,1.988147,1.695012,1.174236,2.03455,0.932032,-1.47612,-1.478061,0.285926,'\'(-inf-6.266667]\''
'\'(27.8-inf)\'',1.186957,1.525461,-0.290096,0.083924,1.236772,-1.131205,1.547242,1.732526,1.489161,3.491415,2.5343,2.845762,1.95348,1.704187,1.189725,1.981598,0.952389,-1.558169,-1.54678,0.147889,'\'(-inf-6.266667]\''
'\'(27.8-inf)\'',1.031,1.307415,-0.199316,0.037165,1.252143,-1.107047,1.556491,1.73485,1.502744,3.53195,2.565026,2.960442,1.926302,1.719034,1.188778,2.001017,0.939829,-1.565628,-1.54678,0.129065,'\'(-inf-6.266667]\''
'\'(27.8-inf)\'',0.675242,0.947791,-0.427947,0.016123,1.266851,-1.094602,1.570477,1.736629,1.512725,3.569043,2.593295,2.995163,1.912572,1.728452,1.150076,2.022641,0.907553,-1.573086,-1.550216,0.19181,'\'(-inf-6.266667]\''
'\'(14.9-27.8]\'',0.46989,0.688104,-0.262078,-0.314467,1.293899,-1.065319,1.600871,1.751349,1.533909,3.605727,2.620807,2.961713,1.917249,1.740823,1.200362,2.06916,0.929508,-1.517144,-1.508984,0.323573,'\'(-inf-6.266667]\''
'\'(27.8-inf)\'',0.314489,0.544255,-0.482863,-0.540316,1.314004,-1.047017,1.627856,1.761811,1.557382,3.644315,2.650152,2.998572,1.935317,1.758927,1.234196,2.102087,0.981853,-1.539521,-1.533036,0.311024,'\'(-inf-6.266667]\''
'\'(27.8-inf)\'',0.160197,0.401919,-0.575884,-0.635004,1.332153,-1.015538,1.65115,1.770404,1.579085,3.677824,2.676083,3.009202,1.981402,1.775474,1.231472,2.076293,0.951574,-1.528333,-1.526164,0.24828,'\'(-inf-6.266667]\''
'\'(14.9-27.8]\'',0.004796,0.146775,-0.560194,-0.535172,1.339254,-1.003825,1.671553,1.790909,1.596025,3.702772,2.695602,2.830567,1.999157,1.789706,1.232205,2.13676,0.986998,-1.423907,-1.429957,0.436513,'\'(-inf-6.266667]\''
'\'(14.9-27.8]\'',-0.040714,0.171759,-0.381996,-0.619807,1.366682,-0.976738,1.69486,1.800195,1.617789,3.727391,2.712058,2.793592,2.00989,1.803199,1.255566,2.171208,1.003277,-1.304563,-1.295955,0.543178,'\'(-inf-6.266667]\''
'\'(14.9-27.8]\'',-0.279367,-0.062186,-0.452603,-0.640849,1.381547,-0.920368,1.729437,1.815482,1.648313,3.736322,2.7182,2.84813,2.060603,1.822539,1.286188,2.238755,1.019882,-1.237432,-1.186004,0.593374,'\'(-inf-6.266667]\''
'\'(14.9-27.8]\'',-0.268267,-0.057643,-0.568039,-0.649265,1.391174,-0.855946,1.742541,1.828991,1.65918,3.745088,2.723029,2.704101,2.095506,1.851343,1.294671,2.286659,1.025355,-1.114359,-1.058873,0.900821,'\'(-inf-6.266667]\''
'\'(14.9-27.8]\'',-0.257166,-0.127297,-0.392083,-0.664228,1.39878,-0.827395,1.774474,1.841329,1.680455,3.733249,2.713034,2.534421,2.147629,1.879918,1.297021,2.284846,1.0062,-0.976367,-0.900819,0.725137,'\'(-inf-6.266667]\''
'\'(14.9-27.8]\'',-0.218316,-0.081113,-0.655456,-0.647863,1.41333,-0.773221,1.818818,1.860192,1.713696,3.717601,2.704991,2.485314,2.223359,1.907877,1.29171,2.31759,0.98741,-0.935343,-0.84928,0.605923,'\'(-inf-6.266667]\''
'\'(14.9-27.8]\'',-0.378158,-0.259033,-0.282251,-0.625886,1.435298,-0.732957,1.817267,1.877963,1.714642,3.705045,2.704806,2.502993,2.261783,1.934796,1.300152,2.283294,0.971889,-1.002474,-0.869895,0.166712,'\'(-inf-6.266667]\''
'\'(14.9-27.8]\'',-0.254946,-0.174994,-0.29682,-0.633835,1.442778,-0.75492,1.819876,1.895404,1.72502,3.685259,2.698933,2.529048,2.29274,1.96399,1.304586,2.304281,0.986463,-0.998744,-0.890511,-0.25995,'\'(-inf-6.266667]\''
'\'(14.9-27.8]\'',-0.287137,-0.260547,-0.541141,-0.721509,1.449942,-0.735154,1.834673,1.91542,1.736466,3.653778,2.684513,2.430314,2.322944,1.987948,1.317995,2.295334,0.98071,-0.804811,-0.704969,-0.027796,'\'(-inf-6.266667]\''
'\'(14.9-27.8]\'',-0.285472,-0.187865,-0.343891,-0.699766,1.462567,-0.704407,1.852984,1.901286,1.752156,3.615026,2.668224,2.38941,2.351686,2.012535,1.314723,2.330958,0.992955,-0.614607,-0.509119,-0.052894,'\'(-inf-6.266667]\''
'\'(14.9-27.8]\'',-0.254946,-0.165152,-0.500795,-0.660721,1.471941,-0.65975,1.861552,1.886118,1.762229,3.580349,2.657035,2.435109,2.3741,2.037646,1.302199,2.282813,0.978194,-0.689196,-0.574403,-0.529751,'\'(-inf-6.266667]\''
'\'(14.9-27.8]\'',-0.335422,-0.294617,-0.520968,-0.67358,1.475918,-0.646573,1.862728,1.889192,1.767784,3.528795,2.633662,2.427367,2.383501,2.092444,1.254855,2.242601,0.975768,-0.864483,-0.739329,-0.912492,'\'(-inf-6.266667]\''
'\'(14.9-27.8]\'',-0.272152,-0.284017,-0.351737,-0.694622,1.489932,-0.591667,1.882097,1.883191,1.786221,3.499321,2.63134,2.382882,2.400052,2.105572,1.288942,2.391482,0.964113,-0.875671,-0.770252,-1.119548,'\'(-inf-6.266667]\''
'\'(14.9-27.8]\'',-0.348742,-0.307487,-0.301303,-0.640849,1.49959,-0.586543,1.894085,1.87216,1.798247,3.470114,2.627874,2.378607,2.388937,2.126723,1.290892,2.349149,0.964134,-0.815999,-0.739329,-1.132097,'\'(-inf-6.266667]\''
'\'(14.9-27.8]\'',-0.358177,-0.303702,-0.407773,-0.576554,1.502272,-0.58215,1.896047,1.861408,1.802887,3.375977,2.575997,2.522982,2.37911,2.135305,1.29141,2.312145,0.960667,-0.801081,-0.698097,-1.238762,'\'(-inf-6.266667]\''
'\'(14.9-27.8]\'',-0.359287,-0.290074,-0.218369,-0.633367,1.50909,-0.559456,1.910327,1.861322,1.815615,3.312502,2.551362,2.535461,2.349375,2.137878,1.306577,2.340484,1.006162,-0.849565,-0.759945,-1.477191,'\'(-inf-6.266667]\''
'\'(14.9-27.8]\'',-0.248841,-0.242376,-0.269923,-0.588244,1.516254,-0.533101,1.91571,1.86367,1.820804,3.298923,2.56336,2.521884,2.33999,2.151192,1.297576,2.358294,0.976924,-0.774975,-0.677481,-1.54621,'\'(-inf-6.266667]\''
'\'(14.9-27.8]\'',-0.267712,-0.258276,-0.310269,-0.469007,1.524366,-0.53603,1.924913,1.863868,1.829809,3.275573,2.560264,2.544358,2.332968,2.145357,1.27537,2.375094,0.909202,-0.782434,-0.684353,-1.452093,'\'(-inf-6.266667]\''
'\'(14.9-27.8]\'',-0.190011,-0.201493,-0.408894,-0.548265,1.529037,-0.540422,1.930977,1.863124,1.834784,3.256565,2.55848,2.491958,2.331203,2.150518,1.300955,2.381924,0.961279,-0.778704,-0.687789,-1.383075,'\'(-inf-6.266667]\''
'\'(14.9-27.8]\'',-0.11564,-0.070514,-0.200437,-0.50057,1.533992,-0.544815,1.948877,1.86592,1.845987,3.232765,2.554206,2.51576,2.335306,2.166957,1.301803,2.415008,0.970665,-0.670549,-0.591582,-1.345428,'\'(-inf-6.266667]\''
'\'(14.9-27.8]\'',-0.12008,-0.166666,-0.060345,-0.622145,1.538979,-0.552135,1.963404,1.870398,1.858868,3.212037,2.549781,2.520498,2.339904,2.174623,1.309686,2.439297,0.97052,-0.603418,-0.543479,-1.213665,'\'(-inf-6.266667]\''
'\'(14.9-27.8]\'',-0.07568,-0.099284,-0.308028,-0.663059,1.54485,-0.564581,1.966683,1.876707,1.859906,3.191186,2.544261,2.540141,2.35245,2.180802,1.282669,2.422288,0.939472,-0.424402,-0.381989,-0.950138,'\'(-inf-6.266667]\''
'\'(14.9-27.8]\'',-0.196116,-0.221178,-0.054741,-0.626821,1.5493,-0.570437,1.971784,1.890823,1.859722,3.17777,2.545793,2.615304,2.341646,2.188407,1.294094,2.418003,0.969679,-0.547476,-0.498811,-1.138371,'\'(-inf-6.266667]\''
'\'(14.9-27.8]\'',-0.085115,-0.143196,-0.353978,-0.676386,1.55779,-0.555796,1.9794,1.902553,1.86543,3.169044,2.54655,2.670708,2.338123,2.196077,1.284623,2.422962,0.963076,-0.748868,-0.722149,-1.439544,'\'(-inf-6.266667]\''
'\'(14.9-27.8]\'',-0.193896,-0.143953,-0.288975,-0.664228,1.561546,-0.583614,1.991846,1.915471,1.881089,3.174861,2.558631,2.68001,2.333994,2.208305,1.242139,2.392543,0.932338,-0.700385,-0.708405,-1.414447,'\'(-inf-6.266667]\''
'\'(14.9-27.8]\'',-0.175026,-0.188622,-0.188109,-0.660721,1.568553,-0.576294,2.006279,1.91638,1.892658,3.183177,2.573422,2.710688,2.338746,2.218543,1.288168,2.417752,0.96181,-0.640713,-0.677481,-1.32033,'\'(-inf-6.266667]\''
'\'(14.9-27.8]\'',-0.14672,-0.157581,-0.148883,-0.640849,1.576317,-0.552867,2.019031,1.930333,1.905417,3.182522,2.580187,2.702657,2.320643,2.228026,1.280466,2.43009,0.939315,-0.648172,-0.684353,-1.32033,'\'(-inf-6.266667]\''
'\'(14.9-27.8]\'',-0.203886,-0.158338,-0.134313,-0.663059,1.580042,-0.597524,2.029714,1.943029,1.915246,3.181129,2.585504,2.640377,2.321979,2.235351,1.274478,2.429886,0.949347,-0.547476,-0.598454,-1.113274,'\'(-inf-6.266667]\''
'\'(14.9-27.8]\'',-0.10343,-0.086413,-0.210524,-0.608117,1.586133,-0.629735,2.031172,1.959049,1.91494,3.187089,2.596424,2.611433,2.330414,2.236219,1.297532,2.456913,0.957471,-0.558664,-0.615634,-1.15092,'\'(-inf-6.266667]\''
'\'(14.9-27.8]\'',0.055856,0.053651,-0.002066,-0.544524,1.588879,-0.630467,2.031066,1.965096,1.919366,3.194483,2.607867,2.615362,2.345045,2.233263,1.307661,2.455215,0.981003,-0.603418,-0.660302,-1.257586,'\'(-inf-6.266667]\''
'\'(14.9-27.8]\'',0.067512,0.061222,0.058453,-0.540316,1.591656,-0.629003,2.036178,1.962937,1.925654,3.194033,2.613319,2.570298,2.339205,2.237289,1.280489,2.488973,0.936885,-0.607148,-0.65343,-1.295232,'\'(-inf-6.266667]\''
'\'(14.9-27.8]\'',0.110802,0.062736,-0.090605,-0.566969,1.593897,-0.631931,2.042819,1.959782,1.930294,3.205216,2.627975,2.579716,2.347459,2.237289,1.299009,2.481725,0.976766,-0.700385,-0.735893,-1.533661,'\'(-inf-6.266667]\''
'\'(14.9-27.8]\'',0.137997,0.114977,-0.137676,-0.594089,1.601472,-0.620218,2.051281,1.971904,1.936765,3.218673,2.642614,2.532515,2.362422,2.237223,1.283309,2.510764,0.968319,-0.771245,-0.79774,-1.502289,'\'(-inf-6.266667]\''
'\'(14.9-27.8]\'',0.189058,0.110434,-0.031206,-0.541485,1.602861,-0.623146,2.059661,1.979508,1.946716,3.230553,2.651263,2.520267,2.369286,2.240645,1.269186,2.534458,0.943216,-0.670549,-0.725585,-1.075627,'\'(-inf-6.266667]\''
'\'(14.9-27.8]\'',0.217363,0.145261,-0.0525,-0.620274,1.611099,-0.615094,2.070062,1.987039,1.950806,3.253657,2.668224,2.548807,2.371326,2.242852,1.259434,2.55814,0.914734,-0.599689,-0.674046,-0.799552,'\'(-inf-6.266667]\''
'\'(14.9-27.8]\'',0.144102,0.067279,-0.126468,-0.606948,1.621293,-0.62095,2.083625,1.991255,1.9621,3.259924,2.671169,2.541643,2.370129,2.244029,1.299937,2.586971,0.950057,-0.577312,-0.667174,-0.674063,'\'(-inf-6.266667]\''
'\'(14.9-27.8]\'',0.058631,-0.014488,-0.195954,-0.647863,1.624797,-0.645841,2.101055,1.998825,1.976446,3.276843,2.682813,2.547478,2.36094,2.248464,1.29386,2.554566,0.946827,-0.480345,-0.570967,-0.42936,'\'(-inf-6.266667]\''
'\'(14.9-27.8]\'',-0.006859,-0.005403,0.047246,-0.589413,1.628016,-0.615094,2.109153,2.007708,1.992716,3.289132,2.695131,2.547362,2.365807,2.256951,1.3305,2.556113,0.997668,-0.532558,-0.625942,-0.5423,'\'(-inf-6.266667]\''
'\'(14.9-27.8]\'',0.001466,0.024881,0.040522,-0.602506,1.631803,-0.618754,2.107272,2.014352,1.993295,3.294007,2.707364,2.640666,2.373165,2.260694,1.321859,2.612629,0.965438,-0.543746,-0.622506,-0.648965,'\'(-inf-6.266667]\''
'\'(14.9-27.8]\'',0.090822,0.16116,0.178372,-0.589413,1.63679,-0.613629,2.11557,2.030372,1.998973,3.319241,2.732234,2.616228,2.401682,2.265675,1.323065,2.608537,0.950002,-0.484074,-0.536607,-0.648965,'\'(-inf-6.266667]\''
'\'(14.9-27.8]\'',-0.001864,-0.003889,0.110007,-0.552006,1.63739,-0.636324,2.118614,2.038619,2.004925,3.328479,2.745561,2.567583,2.4088,2.271547,1.325982,2.578813,0.946394,-0.450509,-0.498811,-0.561123,'\'(-inf-6.266667]\''
'\'(14.9-27.8]\'',0.117462,0.139961,0.023711,-0.518105,1.637832,-0.639984,2.129427,2.054202,2.015944,3.35105,2.768697,2.625414,2.433334,2.275081,1.339501,2.612624,0.957272,-0.480345,-0.546915,-0.586221,'\'(-inf-6.266667]\''
'\'(14.9-27.8]\'',0.274528,0.275483,-0.085001,-0.611624,1.640136,-0.664875,2.136855,2.075752,2.023575,3.362868,2.784515,2.620503,2.471398,2.277761,1.334801,2.632022,0.96133,-0.484074,-0.564095,-0.579946,'\'(-inf-6.266667]\''
