@relation '2025-08-MD-weka.filters.unsupervised.attribute.Discretize-B3-M-1.0-R25-precision6-weka.filters.unsupervised.attribute.Reorder-R1,2,3,4,5,6,7,8,9,10,11,12,13,14,15,16,17,18,19,20,21,22,23,24,26,27,28,29,30,31,32,33,34,35,36,37,38,39,40,41,42,43,44,45,46,47,48,49,50,51,52,53,54,55,56,57,58,59,60,61,62,63,64,65,66,67,68,69,70,71,72,73,74,75,76,77,78,79,80,81,82,83,84,85,86,87,88,89,90,91,92,93,94,95,96,97,98,99,100,101,102,103,104,105,106,107,108,109,110,111,112,113,114,115,116,117,118,119,120,121,122,123,124,125,126,127,25-weka.filters.unsupervised.attribute.Discretize-B3-M-1.0-R25-precision6-weka.filters.unsupervised.attribute.Discretize-B3-M-1.0-Rlast-precision6-weka.filters.unsupervised.attribute.Discretize-B3-M-1.0-Rlast-precision6-weka.filters.unsupervised.attribute.Discretize-B3-M-1.0-R127-precision6-weka.filters.unsupervised.attribute.Discretize-B3-M-1.0-R127-precision6-weka.filters.unsupervised.attribute.Reorder-R1,2,3,4,5,6,7,8,9,10,11,12,13,14,15,16,17,18,19,20,21,22,23,24,25,26,27,28,29,30,31,32,33,34,35,36,37,38,39,40,41,42,43,44,45,46,47,48,49,50,51,52,53,54,55,56,57,58,59,60,61,62,63,64,65,66,67,68,69,70,71,72,73,74,75,76,77,78,79,80,81,82,83,84,85,86,87,88,89,90,91,92,93,94,95,96,97,98,99,100,101,102,103,104,105,106,107,108,109,110,111,112,113,114,115,116,117,118,119,120,121,122,123,124,125,127,126-weka.filters.unsupervised.attribute.Discretize-B3-M-1.0-R127-precision6-weka.filters.unsupervised.attribute.Discretize-B3-M-1.0-R126-precision6-weka.filters.unsupervised.attribute.Reorder-R1,2,3,4,5,6,7,8,9,10,11,12,13,14,15,16,17,18,19,20,21,22,23,24,25,26,27,28,29,30,31,32,33,34,35,36,37,38,39,40,41,42,43,44,45,46,47,48,49,50,51,52,53,54,55,56,57,58,59,60,61,62,63,64,65,66,67,68,69,70,71,72,73,74,75,76,77,78,79,80,81,82,83,84,85,86,87,88,89,90,91,92,93,94,95,96,97,98,99,100,101,102,103,104,105,106,107,108,109,110,111,112,113,114,115,116,117,118,119,120,121,122,123,124,125,127,126-weka.filters.unsupervised.attribute.Remove-R1-weka.filters.unsupervised.attribute.Remove-R57,93,121-weka.filters.unsupervised.attribute.Standardize-weka.filters.unsupervised.attribute.Remove-R84-86,122-weka.filters.unsupervised.instance.RemoveRange-R1-560'

@attribute RPI numeric
@attribute W875RX1 numeric
@attribute DPCERA3M086SBEA numeric
@attribute CMRMTSPLx numeric
@attribute RETAILx numeric
@attribute INDPRO numeric
@attribute IPFPNSS numeric
@attribute IPFINAL numeric
@attribute IPCONGD numeric
@attribute IPDCONGD numeric
@attribute IPNCONGD numeric
@attribute IPBUSEQ numeric
@attribute IPMAT numeric
@attribute IPDMAT numeric
@attribute IPNMAT numeric
@attribute IPMANSICS numeric
@attribute IPB51222S numeric
@attribute IPFUELS numeric
@attribute CUMFNS numeric
@attribute HWI numeric
@attribute HWIURATIO numeric
@attribute CLF16OV numeric
@attribute CE16OV numeric
@attribute UEMPMEAN {'\'(-inf-14.9]\'','\'(14.9-27.8]\'','\'(27.8-inf)\''}
@attribute UEMPLT5 numeric
@attribute UEMP5TO14 numeric
@attribute UEMP15OV numeric
@attribute UEMP15T26 numeric
@attribute UEMP27OV numeric
@attribute CLAIMSx numeric
@attribute PAYEMS numeric
@attribute USGOOD numeric
@attribute CES1021000001 numeric
@attribute USCONS numeric
@attribute MANEMP numeric
@attribute DMANEMP numeric
@attribute NDMANEMP numeric
@attribute SRVPRD numeric
@attribute USTPU numeric
@attribute USWTRADE numeric
@attribute USTRADE numeric
@attribute USFIRE numeric
@attribute USGOVT numeric
@attribute CES0600000007 numeric
@attribute AWOTMAN numeric
@attribute AWHMAN numeric
@attribute HOUST numeric
@attribute HOUSTNE numeric
@attribute HOUSTMW numeric
@attribute HOUSTS numeric
@attribute HOUSTW numeric
@attribute PERMIT numeric
@attribute PERMITNE numeric
@attribute PERMITMW numeric
@attribute PERMITS numeric
@attribute PERMITW numeric
@attribute AMDMNOx numeric
@attribute ANDENOx numeric
@attribute AMDMUOx numeric
@attribute BUSINVx numeric
@attribute ISRATIOx numeric
@attribute M1SL numeric
@attribute M2SL numeric
@attribute M2REAL numeric
@attribute BOGMBASE numeric
@attribute TOTRESNS numeric
@attribute NONBORRES numeric
@attribute BUSLOANS numeric
@attribute REALLN numeric
@attribute NONREVSL numeric
@attribute CONSPI numeric
@attribute 'S&P 500' numeric
@attribute 'S&P div yield' numeric
@attribute 'S&P PE ratio' numeric
@attribute FEDFUNDS numeric
@attribute CP3Mx numeric
@attribute TB3MS numeric
@attribute TB6MS numeric
@attribute GS1 numeric
@attribute GS5 numeric
@attribute GS10 numeric
@attribute AAA numeric
@attribute BAA numeric
@attribute T1YFFM numeric
@attribute T5YFFM numeric
@attribute T10YFFM numeric
@attribute AAAFFM numeric
@attribute BAAFFM numeric
@attribute EXSZUSx numeric
@attribute EXJPUSx numeric
@attribute EXUSUKx numeric
@attribute EXCAUSx numeric
@attribute WPSFD49207 numeric
@attribute WPSFD49502 numeric
@attribute WPSID61 numeric
@attribute WPSID62 numeric
@attribute OILPRICEx numeric
@attribute PPICMM numeric
@attribute CPIAUCSL numeric
@attribute CPIAPPSL numeric
@attribute CPITRNSL numeric
@attribute CPIMEDSL numeric
@attribute CUSR0000SAC numeric
@attribute CUSR0000SAD numeric
@attribute CUSR0000SAS numeric
@attribute CPIULFSL numeric
@attribute CUSR0000SA0L2 numeric
@attribute CUSR0000SA0L5 numeric
@attribute PCEPI numeric
@attribute DDURRG3M086SBEA numeric
@attribute DNDGRG3M086SBEA numeric
@attribute DSERRG3M086SBEA numeric
@attribute CES0600000008 numeric
@attribute CES2000000008 numeric
@attribute CES3000000008 numeric
@attribute DTCOLNVHFNM numeric
@attribute DTCTHFNM numeric
@attribute INVEST numeric
@attribute UNRATE {'\'(-inf-6.266667]\'','\'(6.266667-10.533333]\'','\'(10.533333-inf)\''}

@data
0.628426,0.69054,0.756829,0.918782,0.590451,1.082085,1.224174,1.177052,1.323028,1.312404,1.274946,0.965274,0.912597,1.08797,1.013383,1.221318,1.021599,0.686313,-0.091362,-0.038643,-0.272768,0.837604,0.877478,'\'(14.9-27.8]\'',-0.04053,0.217598,0.039206,0.212355,-0.041744,-0.169746,0.849946,0.215175,-0.771757,1.348452,-0.638639,-0.488372,-0.835331,0.83394,0.85902,0.838291,0.957825,0.950648,0.920642,-0.230615,1.078785,-0.144973,1.744044,0.481915,1.108818,1.564313,2.192123,2.23597,0.573226,1.091915,2.535078,1.850619,0.859218,0.825345,0.192743,0.461513,-1.72181,-0.218111,0.169812,0.199593,-0.243666,-0.525553,-0.515834,0.154149,0.661559,0.360543,0.054134,0.175858,-0.944874,0.055233,-0.352175,-0.354332,-0.295502,-0.268229,-0.291501,-0.428874,-0.513766,-0.618336,-0.612198,0.403239,-0.041598,-0.140736,-0.20617,-0.257739,-0.649764,-0.816499,-0.140492,-0.00249,0.541813,0.521815,0.517936,0.797809,1.060875,0.405482,0.6556,0.573432,0.719215,0.594903,0.718752,0.676042,0.618849,0.671361,0.678406,0.659366,0.668126,0.503183,0.685217,0.620477,0.584353,0.493078,0.647547,0.951822,1.194564,0.317622,'\'(-inf-6.266667]\''
0.620413,0.683107,0.746645,0.9041,0.59565,1.012432,1.208457,1.148554,1.327418,1.386449,1.246907,0.888164,0.787178,1.121286,0.692012,1.181439,1.102376,0.523921,-0.273955,0.073108,-0.237027,0.843068,0.876393,'\'(14.9-27.8]\'',0.224555,0.206391,0.021446,0.105139,-0.017517,0.143543,0.851556,0.214682,-0.730029,1.361891,-0.649698,-0.499286,-0.846229,0.835577,0.855503,0.843147,0.950354,0.954855,0.916664,-0.099723,1.078785,-0.018497,1.890922,0.392974,1.02801,2.010436,2.091069,2.352144,0.668586,1.162043,2.390881,2.394626,0.849356,0.585563,0.20794,0.470671,-1.803774,-0.217947,0.175499,0.182817,-0.240662,-0.525007,-0.515188,0.160507,0.67353,0.363105,0.022417,0.177143,-0.933804,0.010285,-0.318882,-0.324894,-0.301934,-0.265002,-0.297548,-0.464531,-0.534426,-0.603418,-0.588146,0.217307,-0.214649,-0.253676,-0.248439,-0.282812,-0.646399,-0.810235,-0.116963,-0.128765,0.580112,0.570143,0.577967,1.047617,1.081043,0.435341,0.687333,0.560618,0.863909,0.601154,0.794757,0.688271,0.627786,0.706731,0.728859,0.692814,0.692393,0.506421,0.766761,0.629871,0.583126,0.495262,0.643446,0.964801,1.204707,0.317135,'\'(-inf-6.266667]\''
0.634968,0.703444,0.753595,0.903741,0.59645,1.055537,1.254254,1.197443,1.325939,1.422114,1.228092,1.020205,0.826366,1.149867,0.776643,1.233134,1.052588,0.461757,-0.103541,-0.016293,-0.280153,0.844535,0.881226,'\'(14.9-27.8]\'',0.164121,0.208632,-0.003529,0.057488,-0.030387,0.000692,0.854365,0.247689,-0.689765,1.390687,-0.643144,-0.480869,-0.857127,0.83627,0.857613,0.850342,0.949502,0.971213,0.913127,0.031169,1.219918,0.171217,1.665359,0.022384,0.664376,2.164651,1.604173,2.106595,0.461973,1.220484,2.296408,1.806028,0.918508,0.762511,0.228676,0.485243,-1.803774,-0.218377,0.181187,0.189881,-0.241066,-0.52619,-0.516388,0.177229,0.687752,0.36659,-0.011583,0.150691,-0.871828,-0.077025,-0.274491,-0.248354,-0.208669,-0.161731,-0.197773,-0.360803,-0.4449,-0.521369,-0.495376,0.443081,-0.094266,-0.190931,-0.216737,-0.227652,-0.62965,-0.774278,-0.19794,-0.130189,0.606155,0.602835,0.654507,1.212384,0.973477,0.577854,0.690859,0.557415,0.819388,0.610247,0.774489,0.688271,0.64298,0.710268,0.727566,0.695292,0.696452,0.502811,0.745446,0.641555,0.592941,0.500724,0.65575,0.971837,1.213657,0.318114,'\'(-inf-6.266667]\''
0.651463,0.722358,0.761217,0.945343,0.611949,1.094787,1.269066,1.20944,1.321924,1.371948,1.2455,1.057641,0.89067,1.156214,0.903562,1.265201,0.874976,0.712314,-0.008333,0.017765,-0.279938,0.846534,0.879615,'\'(14.9-27.8]\'',0.306964,0.192942,-0.006859,0.135772,-0.069757,-0.162732,0.865601,0.279711,-0.64218,1.431641,-0.645192,-0.482915,-0.859108,0.84543,0.867462,0.861673,0.958308,0.981496,0.919758,0.162061,1.219918,0.107979,1.880431,0.422621,1.179524,1.982897,1.944081,2.23333,0.668586,1.197108,2.370992,2.002227,1.04538,1.306144,0.275125,0.496698,-1.803774,-0.218459,0.183997,0.204714,-0.237426,-0.52628,-0.516388,0.187227,0.701562,0.368456,-0.033141,0.186062,-0.913042,0.005989,-0.213453,-0.195365,-0.153996,-0.110096,-0.152421,-0.321905,-0.417353,-0.495263,-0.464452,0.350116,-0.169505,-0.278773,-0.295993,-0.292841,-0.611219,-0.738777,-0.257153,-0.110726,0.57858,0.570143,0.624491,1.175179,0.836667,0.676935,0.679106,0.563821,0.712258,0.620477,0.723819,0.685213,0.652812,0.69612,0.706867,0.682904,0.691141,0.499472,0.691412,0.649947,0.591714,0.498539,0.654382,0.965364,1.219039,0.301241,'\'(-inf-6.266667]\''
0.660259,0.734182,0.771338,0.963006,0.612869,1.112207,1.278542,1.219234,1.353618,1.329525,1.31229,1.037702,0.916153,1.161807,0.935437,1.268729,1.066463,0.679025,-0.021774,0.035858,-0.201871,0.845441,0.887933,'\'(14.9-27.8]\'',-0.015807,0.155958,-0.038494,0.062594,-0.080356,-0.166707,0.87062,0.288578,-0.607773,1.437401,-0.643144,-0.476776,-0.863071,0.849868,0.87098,0.872824,0.959898,0.982898,0.924179,-0.034277,1.219918,0.044741,1.479139,-0.036911,0.189632,2.539174,0.795742,1.974579,0.58912,0.799713,2.346131,1.520647,1.054352,1.21027,0.310797,0.51588,-1.803774,-0.218827,0.188574,0.212837,-0.23188,-0.525644,-0.515742,0.204021,0.719471,0.3718,-0.040117,0.205301,-0.92639,0.036077,-0.169061,-0.154151,-0.15078,-0.100414,-0.146374,-0.341354,-0.441457,-0.51391,-0.488504,0.164184,-0.335032,-0.423085,-0.40695,-0.408174,-0.615786,-0.738694,-0.235781,-0.20567,0.592367,0.587199,0.622991,1.070206,0.874651,0.852022,0.679106,0.544601,0.701128,0.623319,0.718752,0.685213,0.654599,0.694941,0.702986,0.681665,0.691141,0.495626,0.685916,0.651837,0.595395,0.506186,0.654382,0.930656,1.236596,0.316057,'\'(-inf-6.266667]\''
0.691158,0.759499,0.784854,0.97923,0.663919,1.117933,1.277376,1.209095,1.314505,1.374539,1.233353,1.084319,0.929114,1.188759,1.025563,1.297292,0.624142,0.728582,0.061291,0.097054,-0.102329,0.851186,0.901019,'\'(14.9-27.8]\'',-0.09959,0.094317,-0.12674,0.108543,-0.221178,-0.263265,0.879078,0.333901,-0.576294,1.480915,-0.635362,-0.464498,-0.862081,0.855408,0.8752,0.890361,0.956404,0.992713,0.917106,0.162061,1.219918,0.171217,2.210907,0.808035,0.977505,2.770496,1.732787,2.217488,0.636799,1.091915,2.465466,1.877373,0.91428,0.831296,0.32066,0.529433,-1.803774,-0.217762,0.195692,0.213367,-0.231245,-0.524098,-0.514081,0.220141,0.730539,0.396224,-0.033017,0.218277,-0.933482,0.020651,-0.132993,-0.121769,-0.038219,-0.058461,-0.116139,-0.35432,-0.458673,-0.543746,-0.515991,0.124342,-0.462938,-0.536025,-0.517908,-0.513479,-0.638225,-0.768266,-0.191077,-0.226082,0.606155,0.602835,0.656007,1.086151,1.079026,0.942958,0.69321,0.554211,0.742867,0.625592,0.742398,0.685213,0.66443,0.710268,0.722391,0.696531,0.703442,0.492118,0.714315,0.660744,0.597848,0.507279,0.65575,0.906471,1.224858,0.32508,'\'(-inf-6.266667]\''
0.704487,0.779075,0.79033,0.986587,0.650107,1.119476,1.268501,1.202203,1.291836,1.309149,1.230226,1.094597,0.941712,1.19275,0.993416,1.287598,0.655076,0.769268,-0.000847,0.05874,-0.161791,0.864518,0.911112,'\'(14.9-27.8]\'',-0.030916,-0.024481,0.026441,0.270217,-0.084899,-0.286645,0.888705,0.3674,-0.53969,1.521229,-0.635362,-0.461087,-0.867034,0.862869,0.881004,0.90475,0.958308,1.0058,0.923958,0.096615,1.219918,0.171217,1.806992,0.289209,0.563367,2.148128,2.054322,2.030026,0.54144,1.138667,2.167128,1.79711,1.033726,0.892159,0.353261,0.534946,-1.803774,-0.217988,0.199831,0.219606,-0.23084,-0.526371,-0.516296,0.231806,0.746173,0.397878,-0.065043,0.216657,-0.917914,-0.015522,-0.077504,-0.077612,0.022886,0.00931,-0.046599,-0.283007,-0.407024,-0.521369,-0.505683,0.164184,-0.447891,-0.567397,-0.59188,-0.598725,-0.615866,-0.744655,-0.231468,-0.265484,0.57858,0.564457,0.644001,0.865576,0.948603,1.062398,0.694385,0.518974,0.73591,0.634685,0.735642,0.682156,0.668005,0.710268,0.719804,0.696531,0.704969,0.482639,0.70523,0.666328,0.600302,0.510556,0.657117,0.857101,1.195663,0.333212,'\'(-inf-6.266667]\''
0.715532,0.791807,0.795839,0.991833,0.657089,1.127715,1.285149,1.222401,1.317968,1.340541,1.254426,1.11865,0.940927,1.199185,0.966567,1.287076,0.92004,0.619434,-0.02725,0.275323,0.033559,0.869889,0.92045,'\'(14.9-27.8]\'',0.081711,-0.124227,-0.069575,0.047277,-0.11594,-0.23521,0.898331,0.38415,-0.492105,1.537227,-0.634542,-0.453584,-0.875951,0.871399,0.887863,0.918599,0.96575,1.013746,0.929484,0.096615,1.078785,0.234455,1.413568,-0.007264,0.230036,2.060005,1.310198,1.969299,0.636799,0.776337,2.36602,1.45822,1.120986,1.172593,0.400105,0.55115,-1.72181,-0.217005,0.202288,0.220901,-0.227836,-0.5281,-0.518141,0.244331,0.760373,0.405142,-0.071602,0.229969,-0.925548,-0.026334,-0.04976,-0.03051,0.048614,0.041583,-0.019388,-0.234384,-0.355374,-0.454238,-0.45758,0.150903,-0.410271,-0.536025,-0.54961,-0.578667,-0.616027,-0.750426,-0.238918,-0.225608,0.587771,0.575828,0.642501,0.772563,0.991293,1.050182,0.697911,0.560618,0.730345,0.642641,0.737331,0.679099,0.673368,0.714983,0.721097,0.700247,0.709913,0.470124,0.711806,0.672429,0.602756,0.511648,0.658484,0.862902,1.216455,0.332123,'\'(-inf-6.266667]\''
0.716886,0.794825,0.800515,0.962384,0.666051,1.138496,1.300282,1.246049,1.330855,1.332888,1.277161,1.160521,0.946901,1.203249,0.956002,1.299968,0.866817,0.617004,-0.002323,0.306187,0.044144,0.872012,0.921108,'\'(14.9-27.8]\'',0.089952,0.036039,-0.080675,-0.0242,-0.099284,-0.226559,0.90376,0.413709,-0.421094,1.560904,-0.629217,-0.439942,-0.882886,0.874925,0.886808,0.929211,0.955865,1.024028,0.93302,0.227507,1.078785,0.297693,1.02539,0.155796,0.684578,1.266898,0.758995,1.652461,0.207681,0.308814,2.102489,1.45822,0.973839,0.91036,0.426041,0.566294,-1.639845,-0.217373,0.208598,0.221961,-0.228356,-0.52628,-0.516388,0.264669,0.778789,0.411218,-0.076909,0.236535,-0.920954,-0.060258,0.005729,0.013647,0.077559,0.073855,0.019917,-0.176037,-0.262405,-0.338624,-0.364809,0.057938,-0.425319,-0.492104,-0.491489,-0.543566,-0.633657,-0.752489,-0.192254,-0.28827,0.607687,0.59857,0.665012,0.816412,1.219535,1.462791,0.709664,0.576635,0.781823,0.649461,0.762666,0.682156,0.67873,0.729131,0.735328,0.712635,0.721787,0.470562,0.741571,0.679932,0.607663,0.516018,0.662585,0.861106,1.223043,0.356918,'\'(-inf-6.266667]\''
0.714912,0.790703,0.804935,0.987754,0.659869,1.139413,1.295189,1.243644,1.323385,1.310414,1.276595,1.164306,0.954139,1.1949,0.958535,1.290871,0.882454,0.817175,-0.06119,0.132176,-0.052984,0.877882,0.931892,'\'(14.9-27.8]\'',-0.074868,0.088713,-0.108425,-0.114397,-0.09777,-0.090255,0.905054,0.397452,-0.407917,1.552585,-0.638639,-0.441988,-0.902701,0.877254,0.885577,0.940093,0.946945,1.025898,0.934568,0.031169,1.078785,0.297693,1.342752,0.348503,0.149229,1.713021,1.493932,1.406912,-0.062504,0.367255,1.784262,1.306611,0.987824,0.941816,0.442822,0.585581,-1.639845,-0.216185,0.209759,0.218017,-0.226392,-0.525553,-0.51565,0.287039,0.794788,0.41448,-0.073934,0.227063,-0.891596,-0.119054,0.047346,0.046029,0.116151,0.106127,0.050152,-0.143623,-0.221086,-0.2976,-0.340757,-0.008467,-0.462938,-0.510928,-0.512624,-0.583682,-0.684944,-0.805367,0.005187,-0.450149,0.607687,0.597149,0.686023,0.836344,1.261552,1.924261,0.716716,0.586245,0.794345,0.656281,0.771111,0.679099,0.684987,0.737384,0.741796,0.720068,0.728686,0.46557,0.75091,0.687121,0.615024,0.533496,0.666686,0.814088,1.225659,0.36678,'\'(-inf-6.266667]\''
0.718101,0.793206,0.806376,0.979187,0.669829,1.151716,1.310147,1.265635,1.346522,1.335289,1.299382,1.185834,0.963337,1.195848,0.965829,1.301732,0.951829,0.929176,-0.0451,0.21253,0.004239,0.88678,0.940572,'\'(14.9-27.8]\'',0.144892,-0.03793,-0.206106,-0.092274,-0.240105,-0.217675,0.907768,0.397452,-0.364724,1.543627,-0.634542,-0.434485,-0.903692,0.879961,0.889094,0.94378,0.950297,1.020289,0.933683,0.162061,1.078785,0.297693,0.975556,-0.051734,0.149229,1.426621,0.933543,1.30658,0.016962,0.343878,1.664927,1.155003,1.051084,0.914649,0.471564,0.600428,-1.639845,-0.218602,0.216187,0.224257,-0.226507,-0.525917,-0.516019,0.306362,0.81421,0.405848,-0.142816,0.198368,-0.829973,-0.209283,0.061218,0.104906,0.138664,0.154535,0.098527,-0.120932,-0.221086,-0.319977,-0.330449,0.137622,-0.447891,-0.5423,-0.570745,-0.593711,-0.674446,-0.776699,-0.044222,-0.432584,0.619942,0.611363,0.698029,0.757946,1.262225,1.670452,0.722592,0.592652,0.798518,0.661964,0.774489,0.672984,0.691243,0.7421,0.745677,0.726263,0.735035,0.45039,0.758566,0.695054,0.624838,0.553159,0.668053,0.839288,1.24819,0.363764,'\'(-inf-6.266667]\''
0.715982,0.789109,0.821269,0.965713,0.675687,1.149321,1.300759,1.251854,1.304443,1.203073,1.298546,1.209155,0.968313,1.179214,0.976939,1.289139,1.021064,0.866979,-0.118564,0.095458,-0.131589,0.887499,0.935607,'\'(14.9-27.8]\'',0.166868,0.018107,-0.116195,-0.085466,-0.119726,-0.155485,0.913891,0.394003,-0.333977,1.551945,-0.644783,-0.448127,-0.908645,0.886289,0.893491,0.951154,0.950723,1.021224,0.944956,0.227507,1.219918,0.424169,0.805073,-0.288912,0.179532,1.283421,0.694688,1.031987,0.016962,0.238686,1.510787,0.584241,0.913741,0.84911,0.489822,0.61176,-1.475915,-0.219217,0.22322,0.225552,-0.227027,-0.526099,-0.516296,0.320565,0.829477,0.411466,-0.132681,0.203875,-0.823862,-0.224717,0.13058,0.140232,0.19012,0.183579,0.116668,-0.130657,-0.227972,-0.334895,-0.337321,-0.114713,-0.658561,-0.71171,-0.723972,-0.729103,-0.670039,-0.765389,-0.042653,-0.358054,0.613814,0.607099,0.702531,0.784522,1.378194,1.784463,0.735521,0.557415,0.852779,0.667079,0.801513,0.676042,0.697499,0.756248,0.762495,0.73989,0.743856,0.450727,0.785472,0.699321,0.626065,0.556436,0.668053,0.867855,1.275063,0.367992,'\'(-inf-6.266667]\''
0.713503,0.785159,0.812461,0.983043,0.682841,1.165221,1.322122,1.286729,1.348591,1.302913,1.317551,1.233184,0.978002,1.206138,1.005063,1.315497,1.019038,0.933567,-0.046291,0.263616,0.019303,0.898083,0.949515,'\'(14.9-27.8]\'',0.004795,0.152595,-0.113975,-0.083764,-0.118211,-0.17676,0.919067,0.383658,-0.309087,1.557065,-0.657481,-0.459723,-0.922516,0.892112,0.895425,0.958529,0.95149,1.024495,0.953355,0.227507,0.937652,0.234455,0.576887,-0.140676,-0.254809,1.09616,0.510954,0.923734,-0.078397,0.180245,1.376535,0.557486,0.925208,0.781291,0.493228,0.624672,-1.55788,-0.219217,0.228504,0.225787,-0.228067,-0.5281,-0.518418,0.347633,0.835104,0.418277,-0.113864,0.224836,-0.843309,-0.205919,0.133354,0.116681,0.193336,0.154535,0.07434,-0.201969,-0.300281,-0.398296,-0.395733,-0.313925,-0.831611,-0.849747,-0.819078,-0.819364,-0.674687,-0.763831,0.054989,-0.411222,0.630666,0.625577,0.717539,0.870892,1.332479,1.735601,0.746098,0.583042,0.873648,0.673898,0.815025,0.669927,0.703756,0.766859,0.772844,0.7498,0.752006,0.450525,0.804468,0.704991,0.634653,0.562991,0.674889,0.901103,1.307579,0.373709,'\'(-inf-6.266667]\''
0.728779,0.802847,0.82886,0.98248,0.672155,1.158555,1.315105,1.277766,1.327159,1.242036,1.314179,1.237339,0.97181,1.210341,1.018619,1.318451,0.861286,1.04488,-0.063964,0.277984,0.099713,0.896397,0.955762,'\'(14.9-27.8]\'',0.011663,-0.063707,-0.148385,-0.085466,-0.164395,-0.167642,0.92336,0.3674,-0.283464,1.555785,-0.671408,-0.472683,-0.937377,0.897432,0.899119,0.966083,0.952399,1.031974,0.969049,0.031169,0.655386,0.234455,0.760485,-0.407501,-0.05279,1.586344,0.318033,0.746833,-0.110184,-0.100268,1.207477,0.495059,1.208983,1.515165,0.562329,0.632684,-1.311986,-0.220855,0.233098,0.243564,-0.227663,-0.528191,-0.51851,0.346412,0.850712,0.424909,-0.103587,0.248663,-0.866455,-0.167942,0.133354,0.104906,0.145096,0.128717,0.041081,-0.250592,-0.355374,-0.461697,-0.450708,-0.460014,-0.94447,-0.950138,-0.908901,-0.899596,-0.663708,-0.751053,0.03499,-0.421191,0.601559,0.587199,0.690525,0.813755,1.023899,1.640593,0.734345,0.595855,0.777649,0.679581,0.771111,0.663812,0.710906,0.752711,0.753439,0.737412,0.745199,0.42961,0.757073,0.711321,0.637107,0.569545,0.676256,0.925276,1.339031,0.367855,'\'(-inf-6.266667]\''
0.74269,0.821491,0.840358,0.984733,0.671083,1.154791,1.312792,1.278331,1.321316,1.194135,1.327927,1.243281,0.966511,1.179277,1.014749,1.301619,0.980788,0.895772,-0.157625,0.20029,0.072451,0.908231,0.972168,'\'(14.9-27.8]\'',0.022651,-0.00767,-0.242181,-0.08887,-0.290831,-0.170915,0.923896,0.326019,-0.2432,1.532748,-0.692709,-0.491783,-0.961154,0.900611,0.906154,0.964644,0.962001,1.029637,0.965954,0.227507,0.655386,0.234455,0.159858,-0.377854,-0.456827,0.506838,0.363966,0.522407,-0.300903,-0.217149,1.063281,0.191842,1.001094,1.103074,0.587267,0.640229,-1.230021,-0.219647,0.24141,0.266991,-0.228009,-0.529009,-0.519156,0.358852,0.93559,0.423789,-0.129734,0.284212,-0.903452,-0.108212,0.133354,0.101962,0.180472,0.138399,0.053175,-0.244109,-0.351931,-0.461697,-0.454144,-0.406891,-0.929423,-0.943864,-0.908901,-0.90461,-0.651928,-0.737242,0.020481,-0.362326,0.57858,0.560193,0.665012,0.626399,0.856163,1.68674,0.723768,0.583042,0.699737,0.684696,0.735642,0.65464,0.713587,0.739742,0.731447,0.725024,0.739094,0.427417,0.713839,0.715502,0.648148,0.578284,0.685826,0.909003,1.354845,0.39027,'\'(-inf-6.266667]\''
0.755889,0.836774,0.841318,0.986536,0.676732,1.153807,1.318168,1.289668,1.329729,1.215591,1.330387,1.256741,0.958685,1.176219,1.007614,1.306641,0.995175,0.895887,-0.170693,0.229026,0.053399,0.919627,0.979401,'\'(14.9-27.8]\'',-0.121566,0.11449,-0.188346,-0.013989,-0.250705,-0.120649,0.930682,0.301879,-0.23588,1.522509,-0.706636,-0.510882,-0.967099,0.908921,0.916706,0.975346,0.972057,1.033376,0.96927,0.096615,0.514253,0.171217,0.367061,-0.274088,-0.456827,1.046591,0.125112,0.429996,-0.380369,-0.263901,1.028475,0.022397,1.093121,1.073744,0.626303,0.646694,-1.311986,-0.219544,0.247384,0.276292,-0.223965,-0.528645,-0.518695,0.369483,0.95175,0.42897,-0.141329,0.303887,-0.915544,-0.091888,0.133354,0.101962,0.186904,0.14808,0.053175,-0.279765,-0.396694,-0.528828,-0.529735,-0.406891,-1.012186,-1.025432,-1.004008,-1.014929,-0.671642,-0.750003,0.091066,-0.327197,0.598495,0.578671,0.677018,0.902782,0.872634,1.715242,0.724943,0.570228,0.685824,0.689243,0.727197,0.642411,0.719843,0.740921,0.728859,0.726263,0.73998,0.417567,0.704563,0.720371,0.654282,0.5903,0.68856,0.875546,1.363545,0.391725,'\'(-inf-6.266667]\''
0.771306,0.85115,0.85682,1.036301,0.698947,1.191416,1.358047,1.322418,1.353184,1.297744,1.326722,1.302356,0.992789,1.212794,1.121134,1.360697,0.744193,0.965146,-0.00179,0.215723,0.074653,0.929806,0.993736,'\'(14.9-27.8]\'',-0.004819,-0.070431,-0.230526,-0.078659,-0.279475,-0.13117,0.936616,0.300894,-0.208061,1.534668,-0.716876,-0.513611,-0.987904,0.914902,0.924972,0.997739,0.972426,1.032908,0.970375,0.358399,0.655386,0.234455,0.574264,0.096502,-0.396222,0.875853,0.850862,0.701948,0.016962,-0.123644,1.177643,0.343451,1.145055,1.244276,0.657923,0.651167,-1.55788,-0.220405,0.254602,0.277645,-0.218246,-0.527554,-0.51768,0.38509,0.971772,0.437672,-0.163497,0.325525,-0.929953,-0.077035,0.13058,0.101962,0.15796,0.12549,0.032011,-0.295973,-0.410467,-0.532558,-0.522863,-0.486576,-1.042282,-1.044255,-1.004008,-0.999886,-0.692237,-0.749988,0.189884,-0.245071,0.615346,0.59857,0.690525,0.982508,0.962048,1.704384,0.737871,0.583042,0.733128,0.691516,0.750843,0.636297,0.726099,0.755069,0.745677,0.73989,0.749167,0.406401,0.734391,0.725497,0.665324,0.597947,0.69813,0.855516,1.387611,0.403669,'\'(-inf-6.266667]\''
0.776043,0.847029,0.862136,1.017022,0.695942,1.17817,1.333848,1.296172,1.325939,1.205026,1.329816,1.25255,0.991529,1.217724,1.108635,1.347464,0.82412,1.05263,-0.085815,0.291819,0.034197,0.94267,0.995643,'\'(14.9-27.8]\'',-0.052892,0.176131,-0.190011,-0.036113,-0.243134,-0.162732,0.943654,0.318629,-0.192687,1.560264,-0.718924,-0.528617,-0.971062,0.920789,0.932182,1.000886,0.982709,1.031506,0.971922,0.096615,0.514253,0.171217,-0.055214,0.126149,-0.830562,0.380161,-0.15049,0.670264,0.207681,0.121805,0.948918,0.352369,1.07157,0.979184,0.690837,0.654658,-1.393951,-0.21936,0.261013,0.285239,-0.220383,-0.526371,-0.51648,0.397649,0.984887,0.435345,-0.209934,0.331554,-0.9258,-0.096162,0.133354,0.101962,0.199768,0.14808,0.068293,-0.22466,-0.341601,-0.502722,-0.481632,-0.340487,-0.884279,-0.92504,-0.967022,-0.944726,-0.665631,-0.719037,0.181649,-0.135411,0.612282,0.594306,0.681521,0.842987,0.711285,1.662309,0.741832,0.584964,0.716293,0.705036,0.749745,0.626483,0.733375,0.757392,0.747863,0.742912,0.757836,0.399452,0.736043,0.73744,0.670231,0.609964,0.699497,0.821343,1.38191,0.411387,'\'(-inf-6.266667]\''
0.787585,0.858558,0.861464,1.035873,0.699877,1.213774,1.369854,1.335945,1.378755,1.24781,1.388232,1.274414,1.025709,1.239733,1.131366,1.360207,1.289106,0.988685,-0.07408,0.257762,0.060472,0.937643,0.996597,'\'(14.9-27.8]\'',-0.035036,0.065178,-0.159486,-0.12631,-0.161366,-0.137015,0.946369,0.266902,-0.157548,1.496913,-0.72343,-0.528617,-0.98196,0.926801,0.940096,1.014016,0.99089,1.032908,0.97988,-0.034277,0.514253,0.107979,0.131007,-0.481619,-1.113388,0.842807,0.363966,0.596336,-0.428049,-0.404158,1.098087,0.593159,1.048062,1.058789,0.710374,0.664,-1.475915,-0.221142,0.263722,0.281942,-0.222116,-0.528191,-0.518141,0.413104,1.000653,0.441227,-0.2324,0.347631,-0.935531,-0.099793,0.136129,0.099018,0.215849,0.151307,0.065269,-0.237626,-0.355374,-0.506451,-0.502247,-0.367049,-0.921899,-0.956413,-0.977589,-0.979828,-0.668677,-0.718467,0.182042,-0.160571,0.639857,0.625577,0.69953,1.064891,0.868936,1.685382,0.751105,0.59704,0.725156,0.715101,0.762091,0.623211,0.741213,0.765586,0.757863,0.752141,0.765925,0.399182,0.750592,0.744285,0.672685,0.613241,0.704965,0.804101,1.37374,0.415925,'\'(-inf-6.266667]\''
0.797607,0.871266,0.864474,1.039837,0.714875,1.220384,1.371954,1.330652,1.341686,1.265212,1.324777,1.326462,1.036963,1.271866,1.198441,1.390982,0.951899,1.079004,0.003562,0.397716,0.23177,0.939766,1.005244,'\'(14.9-27.8]\'',-0.40176,0.031556,-0.135065,-0.044622,-0.164395,-0.199439,0.953439,0.293997,-0.124604,1.548106,-0.735309,-0.542942,-0.989886,0.932121,0.951704,1.017164,1.007508,1.028235,0.983858,0.227507,0.796519,0.360931,0.170349,-0.570561,-0.396222,0.600468,0.308846,0.591055,-0.110184,-0.14702,0.90914,0.53965,1.14837,1.393091,0.741635,0.666899,-1.55788,-0.220425,0.269427,0.281001,-0.221597,-0.529919,-0.519987,0.426247,0.967248,0.449781,-0.241839,0.318149,-0.881524,-0.198728,0.136129,0.096074,0.186904,0.128717,0.025964,-0.31218,-0.410467,-0.540017,-0.505683,-0.539699,-1.094949,-1.056804,-1.025143,-0.984842,-0.685906,-0.750602,0.159494,-0.173863,0.661304,0.654005,0.720541,1.091466,0.912635,1.841468,0.763587,0.582946,0.771263,0.718221,0.787224,0.622111,0.74704,0.778814,0.774992,0.765422,0.775479,0.38832,0.780453,0.749898,0.682499,0.623072,0.7118,0.825077,1.382191,0.420963,'\'(-inf-6.266667]\''
0.801856,0.880097,0.867069,1.03438,0.710417,1.245444,1.396585,1.357852,1.365829,1.327691,1.331138,1.354786,1.061803,1.301364,1.218364,1.414465,1.024742,0.98946,0.053557,0.252441,0.078427,0.920533,0.981111,'\'(14.9-27.8]\'',-0.197109,0.076385,-0.120635,0.065997,-0.193922,-0.148705,0.955427,0.274784,-0.081412,1.535308,-0.74555,-0.550445,-1.003756,0.935332,0.951528,1.031283,1.001429,1.019354,0.989605,0.162061,0.655386,0.360931,0.157235,-0.051734,-0.679048,0.490315,0.38234,0.258375,-0.18965,-0.404158,0.660525,0.102661,1.193979,1.379528,0.779134,0.679445,-1.55788,-0.21807,0.281626,0.295599,-0.220383,-0.528281,-0.518326,0.439463,0.982895,0.455659,-0.240671,0.362305,-0.929519,-0.146736,0.133354,0.099018,0.164392,0.119035,0.028988,-0.276524,-0.365704,-0.476615,-0.464452,-0.513138,-1.004662,-0.968962,-0.930036,-0.919654,-0.690233,-0.734039,0.238902,-0.33147,0.679688,0.676747,0.744553,1.096782,1.02726,2.180784,0.770827,0.568018,0.791409,0.726297,0.798101,0.618106,0.752152,0.786277,0.783129,0.772619,0.781645,0.378537,0.793636,0.755511,0.693541,0.633996,0.725471,0.827769,1.401612,0.426017,'\'(-inf-6.266667]\''
0.803247,0.882551,0.87104,1.055521,0.734053,1.247465,1.388029,1.352378,1.347435,1.305793,1.314188,1.358743,1.075309,1.31071,1.214739,1.411743,1.061709,1.027926,0.006922,0.235412,0.089399,0.92787,0.991533,'\'(14.9-27.8]\'',-0.186121,0.081989,-0.148385,0.108543,-0.249947,-0.22352,0.960098,0.260498,-0.064574,1.526989,-0.752513,-0.560677,-1.005738,0.940903,0.956628,1.038298,1.006259,1.023561,0.993584,0.162061,0.655386,0.234455,-0.039477,-0.170323,-0.305313,0.247977,-0.168863,0.319103,-0.412156,-0.357406,0.854445,0.049152,1.140288,1.155899,0.801367,0.690568,-1.639845,-0.217476,0.283965,0.291007,-0.218823,-0.526826,-0.516849,0.461744,0.993943,0.462157,-0.233084,0.399303,-0.964828,-0.109432,0.133354,0.099018,0.119367,0.093218,0.022941,-0.250592,-0.345044,-0.476615,-0.464452,-0.539699,-0.94447,-0.931315,-0.930036,-0.919654,-0.683262,-0.715807,0.231647,-0.520882,0.690411,0.68954,0.765564,1.107412,1.010117,2.195714,0.780828,0.562732,0.821739,0.732952,0.816866,0.60982,0.757345,0.79644,0.796091,0.782914,0.789276,0.374726,0.816476,0.759807,0.703356,0.648197,0.73094,0.836601,1.421682,0.422878,'\'(-inf-6.266667]\''
0.80219,0.881643,0.871168,1.051902,0.719155,1.248493,1.393383,1.363337,1.354276,1.352249,1.302367,1.357634,1.071521,1.325224,1.224657,1.424553,0.937541,1.038335,0.01887,0.342905,0.112514,0.939454,0.996794,'\'(14.9-27.8]\'',-0.066627,0.027073,-0.120635,0.173213,-0.241619,-0.172318,0.962497,0.260005,-0.047005,1.535948,-0.760296,-0.572273,-1.007719,0.943327,0.955573,1.04828,1.001799,1.022159,0.996678,0.227507,0.796519,0.424169,0.047076,-0.1555,-0.416424,0.35813,0.042431,0.092036,-0.28501,-0.439222,0.551135,-0.18272,1.140663,1.299652,0.825469,0.700263,-1.55788,-0.220077,0.289552,0.295658,-0.217957,-0.527008,-0.517126,0.48583,1.003856,0.467511,-0.219467,0.401679,-0.954724,-0.128333,0.133354,0.104906,0.080775,0.086763,0.038058,-0.133898,-0.224529,-0.357272,-0.357937,-0.473295,-0.673609,-0.71171,-0.760958,-0.764204,-0.673725,-0.696837,0.236549,-0.663297,0.691943,0.68954,0.776069,1.122028,1.145247,2.144138,0.786458,0.543832,0.824981,0.73876,0.820412,0.604653,0.764039,0.801427,0.801201,0.78855,0.794862,0.374962,0.819938,0.766365,0.70949,0.652567,0.737775,0.841609,1.446247,0.431081,'\'(-inf-6.266667]\''
0.804041,0.882673,0.879399,1.032975,0.727182,1.242594,1.3797,1.356285,1.338091,1.312001,1.297479,1.358206,1.074325,1.323861,1.247362,1.4222,0.913174,1.040187,-0.022591,0.204015,-0.042008,0.93986,0.991599,'\'(14.9-27.8]\'',-0.133928,0.104404,-0.07457,0.062594,-0.129568,-0.181436,0.961708,0.237344,-0.012597,1.51867,-0.769308,-0.582505,-1.014654,0.943988,0.958035,1.053766,1.003077,1.023093,0.988721,0.227507,0.655386,0.360931,-0.199469,-0.318559,-0.365919,-0.027408,-0.12293,-0.029419,-0.316796,-0.579479,0.357216,-0.120293,1.191121,1.30997,0.858859,0.704437,-1.475915,-0.21934,0.294751,0.300779,-0.216975,-0.527918,-0.518141,0.507543,1.014774,0.476871,-0.190425,0.406758,-0.945838,-0.137036,0.136129,0.104906,0.148312,0.109354,0.038058,-0.18252,-0.258962,-0.379648,-0.375117,-0.486576,-0.793992,-0.780728,-0.797944,-0.794291,-0.694641,-0.709453,0.33223,-0.73403,0.708794,0.709439,0.79708,1.092795,1.370463,2.2025,0.790795,0.539764,0.831854,0.751297,0.825294,0.596307,0.767793,0.805164,0.805354,0.792193,0.798891,0.361941,0.827467,0.771034,0.710717,0.655844,0.737775,0.873044,1.476959,0.439994,'\'(-inf-6.266667]\''
0.803869,0.879386,0.890833,1.07261,0.737142,1.249959,1.377062,1.355131,1.328833,1.301444,1.288813,1.363231,1.092424,1.33324,1.201485,1.410958,1.117545,1.077092,-0.093211,0.176344,-0.041703,0.930337,0.984267,'\'(14.9-27.8]\'',0.019904,0.051729,-0.091775,0.084717,-0.163638,-0.149874,0.960729,0.183153,-0.000884,1.486674,-0.793885,-0.606379,-1.039423,0.946475,0.957508,1.053047,1.003304,1.010006,1.000878,0.162061,0.655386,0.360931,-0.262417,-1.059739,-0.345717,0.28653,-0.426091,-0.135031,-0.332689,-0.731424,0.138435,0.040234,1.221364,1.141215,0.895457,0.710428,-1.55788,-0.218418,0.307556,0.321675,-0.21657,-0.526099,-0.516849,0.539817,1.02746,0.485352,-0.154665,0.35528,-0.860425,-0.239281,0.069542,0.119625,-0.051083,-0.03587,-0.110092,-0.328388,-0.372591,-0.357272,-0.375117,-0.818596,-0.951994,-0.837198,-0.639433,-0.673943,-0.698007,-0.755817,0.284193,-0.697477,0.690411,0.685275,0.771567,1.025028,1.310293,2.030128,0.791547,0.52221,0.816995,0.760714,0.819551,0.597071,0.771726,0.804528,0.803413,0.79223,0.800692,0.343556,0.820828,0.777248,0.715624,0.658029,0.745978,0.893754,1.523826,0.4514,'\'(-inf-6.266667]\''
0.807505,0.881766,0.893139,1.074159,0.744991,1.259156,1.392038,1.370875,1.324001,1.253719,1.304341,1.407368,1.095257,1.333888,1.241624,1.421884,1.227049,1.048673,-0.078596,0.232751,-0.025562,0.9511,1.002745,'\'(14.9-27.8]\'',-0.058386,0.204149,-0.079565,0.093227,-0.15001,-0.180735,0.963507,0.148668,-0.005276,1.465557,-0.809041,-0.624796,-1.04933,0.951449,0.963135,1.054216,1.005776,0.999256,1.012593,0.227507,0.655386,0.360931,-0.647972,-0.377854,-1.002278,-0.280761,-0.655759,-0.29345,-0.555195,-0.637919,0.158324,-0.477019,1.112611,1.220897,0.91392,0.724476,-1.55788,-0.218541,0.310619,0.317967,-0.217841,-0.5281,-0.519525,0.592388,1.045965,0.491765,-0.160337,0.388383,-0.89053,-0.188402,0.047346,0.087243,-0.15078,-0.142368,-0.209867,-0.402942,-0.42424,-0.375919,-0.395733,-1.150617,-1.064853,-0.881119,-0.623582,-0.663914,-0.712031,-0.772555,0.298703,-0.845589,0.714922,0.717967,0.791077,1.086151,1.563746,1.990767,0.80189,0.526118,0.844765,0.767278,0.836627,0.597041,0.778366,0.814691,0.816441,0.802908,0.810887,0.338428,0.841444,0.785783,0.720531,0.665676,0.748712,0.864483,1.541591,0.46645,'\'(-inf-6.266667]\''
0.80415,0.877669,0.895285,1.091154,0.756195,1.24812,1.366417,1.341125,1.281672,1.245507,1.24533,1.39733,1.099913,1.34548,1.213648,1.41536,1.025262,1.030679,-0.123204,0.224237,-0.049492,0.943888,0.992947,'\'(14.9-27.8]\'',-0.074868,0.439504,-0.11009,-0.056535,-0.124268,-0.111297,0.965906,0.129455,0.004973,1.457878,-0.82051,-0.642532,-1.051312,0.955069,0.962432,1.060781,1.003816,0.99318,1.016571,0.162061,0.514253,0.297693,-0.435523,-0.1555,-0.709351,-0.099008,-0.619012,-0.475632,-0.396262,-0.836617,-0.174819,-0.432429,1.162121,1.141137,0.941324,0.730215,-1.639845,-0.217783,0.31316,0.315789,-0.216917,-0.528645,-0.518879,0.622841,1.077204,0.499122,-0.138054,0.421518,-0.919774,-0.127614,-0.002594,0.004816,-0.147564,-0.155277,-0.221961,-0.402942,-0.420797,-0.405755,-0.433528,-0.964685,-0.929423,-0.761905,-0.570745,-0.628813,-0.720926,-0.764408,0.350661,-1.089119,0.740965,0.746395,0.810587,1.234973,1.774508,2.099348,0.809447,0.539316,0.853085,0.777575,0.845173,0.596123,0.78557,0.82226,0.825354,0.810255,0.818945,0.33853,0.853674,0.793172,0.721758,0.668953,0.748712,0.863354,1.558647,0.471582,'\'(-inf-6.266667]\''
0.802401,0.876025,0.900986,1.083347,0.774244,1.269293,1.378018,1.353575,1.280172,1.259407,1.236678,1.418654,1.130447,1.389817,1.247877,1.435304,1.040445,0.993736,-0.066044,0.229558,-0.046242,0.964245,1.014285,'\'(14.9-27.8]\'',0.062482,0.146992,-0.07346,-0.075255,-0.066728,-0.075058,0.969504,0.108764,0.041576,1.431001,-0.822559,-0.643896,-1.054284,0.959979,0.97316,1.06132,1.021996,0.98617,1.02475,0.292953,0.655386,0.360931,-0.611253,-0.585384,-0.608341,-0.247715,-0.811933,-0.391142,-0.634661,-0.801552,0.153352,-0.628628,1.118842,1.225805,0.959602,0.743832,-1.72181,-0.21934,0.317434,0.306606,-0.213855,-0.528191,-0.51851,0.646178,1.093781,0.502452,-0.154497,0.362111,-0.8237,-0.232433,-0.077504,-0.042286,-0.350175,-0.332773,-0.403369,-0.574741,-0.551642,-0.487804,-0.461016,-1.402952,-1.125045,-0.830924,-0.544326,-0.533537,-0.761635,-0.81188,0.40007,-1.128045,0.788455,0.803251,0.870618,1.435617,2.057541,1.947334,0.828769,0.54899,0.927755,0.785571,0.887381,0.601015,0.792398,0.843199,0.85159,0.830559,0.833078,0.333099,0.902181,0.799272,0.730346,0.679877,0.756915,0.838009,1.562531,0.477654,'\'(-inf-6.266667]\''
0.813863,0.885936,0.899256,1.057216,0.75226,1.271503,1.37959,1.357711,1.266728,1.260008,1.216521,1.447996,1.133265,1.392154,1.279478,1.441875,0.924123,0.965322,-0.052443,0.175812,-0.183707,0.966837,1.003698,'\'(14.9-27.8]\'',0.162747,0.298291,0.001466,0.239584,-0.104584,-0.018012,0.972786,0.089059,0.075984,1.409884,-0.827474,-0.655492,-1.04933,0.964512,0.972105,1.06114,1.020547,0.981028,1.034033,0.162061,0.37312,0.234455,-1.030904,-0.941151,-1.355811,-0.396423,-1.133468,-0.589165,-0.555195,-1.023626,-0.050512,-0.806991,1.323089,1.552224,1.021123,0.762028,-1.55788,-0.219012,0.322549,0.309019,-0.212179,-0.527372,-0.531614,0.675828,1.100716,0.506848,-0.17934,0.374441,-0.826304,-0.178943,-0.146866,-0.039342,-0.437008,-0.406999,-0.475933,-0.633088,-0.568859,-0.469156,-0.375117,-1.389672,-1.072377,-0.705435,-0.385815,-0.282812,-0.748092,-0.798251,0.294193,-0.962369,0.777731,0.790458,0.873619,1.516671,1.960396,1.84011,0.83595,0.568626,0.9405,0.792153,0.89564,0.600954,0.798905,0.850862,0.859274,0.837806,0.839274,0.321258,0.91492,0.805315,0.737707,0.691893,0.756915,0.843615,1.575136,0.47659,'\'(-inf-6.266667]\''
0.817013,0.887138,0.898808,1.073214,0.756435,1.266799,1.379161,1.356981,1.256437,1.174197,1.241594,1.461572,1.124418,1.391812,1.22671,1.433807,1.05376,1.05053,-0.086828,0.217851,-0.162781,0.971364,1.007151,'\'(14.9-27.8]\'',-0.062506,0.331913,0.023111,0.197039,-0.056129,-0.062199,0.97266,0.074772,0.123569,1.400925,-0.836486,-0.665042,-1.057256,0.965299,0.968236,1.057453,1.015093,0.979159,1.036685,0.162061,0.514253,0.234455,-0.907632,-0.585384,-1.143691,-0.506576,-0.931361,-0.734382,-0.634661,-0.883369,-0.120124,-1.235062,1.263893,1.469992,1.061524,0.778223,-1.639845,-0.218131,0.328203,0.311197,-0.215993,-0.526099,-0.558189,0.704872,1.109291,0.510114,-0.189597,0.296192,-0.694329,-0.296342,-0.230099,-0.351388,-0.517409,-0.561904,-0.642224,-0.798404,-0.692817,-0.528828,-0.412912,-1.721692,-1.23038,-0.743082,-0.311844,-0.187536,-0.779826,-0.844115,0.204197,-0.925341,0.802242,0.820308,0.908137,1.618986,2.001405,1.897116,0.844518,0.571445,0.953439,0.80099,0.908595,0.600495,0.805233,0.858419,0.869559,0.846354,0.846051,0.324159,0.928897,0.810212,0.747521,0.698447,0.766484,0.849181,1.57451,0.455381,'\'(-inf-6.266667]\''
0.819811,0.889837,0.88936,1.042651,0.739493,1.252968,1.367798,1.352266,1.24923,1.154595,1.240139,1.460887,1.108549,1.385314,1.128689,1.408136,1.142299,1.053756,-0.179956,0.034261,-0.252848,0.958563,0.999852,'\'(14.9-27.8]\'',0.07347,0.291567,-0.029059,0.135772,-0.100798,-0.024792,0.97064,0.050633,0.139674,1.386207,-0.847545,-0.67732,-1.066173,0.964827,0.961025,1.04837,1.005179,0.975887,1.043095,0.096615,0.37312,0.234455,-0.857798,-0.644679,-1.224499,-0.346853,-0.912987,-0.945608,-0.96842,-1.304139,-0.378683,-0.976436,1.212919,1.286359,1.093358,0.787945,-1.55788,-0.217578,0.342741,0.330092,-0.216628,-0.527099,-0.572492,0.714952,1.118156,0.517638,-0.175724,0.277583,-0.650683,-0.292669,-0.496447,-0.548625,-0.720019,-0.791036,-0.841773,-0.863234,-0.692817,-0.454238,-0.316705,-1.323267,-0.658561,-0.140736,0.301065,0.434262,-0.789122,-0.851921,0.193218,-0.978984,0.811434,0.827415,0.93215,1.751863,2.08208,2.243218,0.850547,0.554339,0.964555,0.802621,0.916364,0.59273,0.810354,0.863961,0.877049,0.852758,0.851423,0.317851,0.939221,0.815167,0.754882,0.710464,0.776054,0.824157,1.564295,0.461908,'\'(-inf-6.266667]\''
0.823018,0.890695,0.89615,1.000673,0.744918,1.240947,1.339451,1.32491,1.18379,1.060144,1.187164,1.483371,1.11271,1.374999,1.123985,1.391833,1.059487,0.951571,-0.234165,0.005525,-0.342009,0.966525,0.99755,'\'(14.9-27.8]\'',0.306964,0.47873,-0.004084,0.224268,-0.105341,0.053063,0.968431,0.011222,0.190919,1.356131,-0.86393,-0.698466,-1.075089,0.965142,0.957508,1.039377,1.00214,0.97542,1.048842,0.227507,0.514253,0.360931,-1.114835,-0.807738,-1.386114,-0.644268,-1.069161,-1.069702,-0.87306,-1.444396,-0.363766,-1.368835,1.210939,1.35325,1.135551,0.789332,-1.55788,-0.215878,0.353864,0.340806,-0.214606,-0.527099,-0.604236,0.741643,1.128419,0.526196,-0.1643,0.248039,-0.585575,-0.316831,-0.599102,-0.645772,-0.996599,-0.971759,-0.99597,-0.960479,-0.772013,-0.461697,-0.292654,-1.509199,-0.605893,-0.052894,0.485994,0.6549,-0.850347,-0.914057,0.265567,-0.958571,0.834413,0.855842,0.989179,1.896698,2.425283,2.548603,0.859491,0.538162,0.977605,0.807071,0.924674,0.589978,0.820114,0.873593,0.887179,0.862099,0.859145,0.316873,0.951038,0.822327,0.76347,0.719203,0.782889,0.827649,1.559341,0.460547,'\'(-inf-6.266667]\''
0.815397,0.873596,0.90057,1.032521,0.743099,1.21521,1.301979,1.291358,1.155674,0.980211,1.182743,1.425877,1.098936,1.36024,1.055216,1.35298,1.07191,1.019643,-0.366621,-0.095582,-0.376352,0.962185,0.999063,'\'(14.9-27.8]\'',-0.146289,0.520197,0.104697,0.472736,-0.068243,0.034827,0.961518,-0.057255,0.190919,1.305578,-0.888917,-0.732572,-1.085987,0.962624,0.939921,1.020312,0.978505,0.970746,1.05039,0.162061,0.37312,0.297693,-1.093852,-1.133857,-1.062884,-0.732391,-0.940547,-0.961449,-0.952527,-1.093754,-0.413489,-1.136963,1.166642,1.226964,1.15475,0.798346,-1.72181,-0.215325,0.361015,0.347634,-0.216224,-0.526008,-0.64087,0.765267,1.13567,0.53254,-0.128431,0.289734,-0.65049,-0.188196,-0.690659,-0.639884,-0.986951,-0.949169,-0.935501,-0.843785,-0.713477,-0.446779,-0.265166,-0.805316,-0.086742,0.260828,0.681491,0.860495,-0.849385,-0.895026,0.226549,-0.907302,0.842073,0.862949,1.016193,2.010972,2.660919,2.620538,0.865297,0.548734,0.967964,0.810134,0.929505,0.579828,0.826111,0.876882,0.896441,0.868132,0.864151,0.300512,0.964126,0.827081,0.764697,0.729034,0.784257,0.823732,1.555969,0.452378,'\'(-inf-6.266667]\''
0.92945,0.862214,0.905662,1.010695,0.76107,1.192197,1.2828,1.279772,1.128658,0.946137,1.158544,1.435713,1.072909,1.327289,1.025851,1.329326,1.0058,0.999155,-0.44108,-0.010971,-0.460117,0.978858,0.991698,'\'(14.9-27.8]\'',0.931905,0.410365,0.156312,0.311062,0.07485,0.068961,0.955616,-0.095681,0.265591,1.271663,-0.902844,-0.74485,-1.101839,0.959192,0.92462,1.00871,0.960694,0.966539,1.057684,-0.034277,0.231987,0.171217,-1.198765,-0.659502,-1.376013,-0.809499,-1.188589,-0.995773,-0.459836,-1.269075,-0.61238,-1.038863,1.123117,1.136925,1.17387,0.802353,-1.72181,-0.214915,0.363152,0.338628,-0.213624,-0.524279,-0.657941,0.766837,1.129977,0.537008,-0.418657,0.315244,-0.684446,-0.08275,-0.773892,-0.672266,-0.845445,-0.862034,-0.83875,-0.743299,-0.644611,-0.43932,-0.27891,0.018095,0.372219,0.57455,0.850569,0.990872,-0.824543,-0.878369,0.194002,-0.975661,0.880371,0.908434,1.086729,2.203643,3.091856,2.467167,0.880177,0.548317,1.014656,0.813464,0.953252,0.571329,0.835826,0.892539,0.918045,0.884002,0.875781,0.290965,0.992398,0.835816,0.773285,0.738866,0.791092,0.820177,1.561965,0.458024,'\'(-inf-6.266667]\''
0.86208,0.847617,0.900602,1.006503,0.764577,1.182545,1.265442,1.270721,1.118541,0.969897,1.132502,1.415522,1.070523,1.324046,0.950771,1.302669,1.081267,0.97223,-0.524803,-0.204672,-0.614264,0.97917,0.986076,'\'(14.9-27.8]\'',0.21082,1.015564,0.230128,0.511878,0.086207,0.145881,0.950787,-0.153813,0.310979,1.232628,-0.927831,-0.770088,-1.125617,0.958091,0.916178,0.997559,0.953876,0.960463,1.065199,0.096615,0.231987,0.171217,-1.007299,0.985918,-1.416416,-0.941683,-1.280456,-0.507315,2.146659,-1.210635,-0.582546,-0.949682,1.145278,1.109836,1.193901,0.815939,-1.803774,-0.212621,0.366299,0.321793,-0.210446,-0.52528,-0.673259,0.7757,1.122513,0.539343,-0.293965,0.266975,-0.59293,-0.120745,-0.768343,-0.645772,-0.803636,-0.761991,-0.729905,-0.633088,-0.568859,-0.398296,-0.230806,0.469643,0.612985,0.700039,0.898123,1.051046,-0.830713,-0.853058,0.196747,-0.893535,0.923265,0.961026,1.149762,2.295328,3.378923,2.357228,0.90668,0.54143,1.12287,0.819221,1.009023,0.565917,0.846211,0.920929,0.956597,0.912259,0.89553,0.288672,1.057487,0.844579,0.7831,0.747605,0.800662,0.7958,1.54518,0.463891,'\'(-inf-6.266667]\''
0.817954,0.836529,0.887438,0.952505,0.757616,1.165765,1.233272,1.235526,1.089928,0.894828,1.124941,1.36052,1.068231,1.278725,0.893893,1.262269,0.992249,0.978941,-0.658023,-0.247776,-0.693338,0.984041,0.979335,'\'(14.9-27.8]\'',0.349543,0.810469,0.341684,0.704186,0.152832,0.214851,0.944475,-0.215885,0.327085,1.198712,-0.958553,-0.807605,-1.145432,0.955761,0.904922,0.978314,0.94257,0.952518,1.076472,0.031169,0.090854,0.171217,-1.329906,-0.125852,-1.2346,-1.161991,-1.51931,-1.191157,-1.111459,-1.36258,-0.537796,-1.395589,1.041609,1.046539,1.200605,0.828656,-1.72181,-0.209242,0.374258,0.319615,-0.206518,-0.525098,-0.667907,0.792535,1.118055,0.542911,-0.198982,0.201609,-0.464281,-0.176131,-0.765569,-0.639884,-0.877605,-0.826535,-0.772233,-0.694677,-0.599848,-0.402025,-0.199883,0.270431,0.462506,0.637295,0.887555,1.091162,-0.837765,-0.853685,0.240666,-0.910625,0.956968,1.000825,1.229302,2.417574,3.362452,2.431878,0.924932,0.557607,1.16511,0.821978,1.040083,0.563135,0.857249,0.93819,0.982574,0.93182,0.908289,0.290055,1.092684,0.851796,0.791687,0.754159,0.807497,0.799537,1.546993,0.454367,'\'(-inf-6.266667]\''
0.80101,0.850316,0.887118,0.929905,0.742028,1.107648,1.17624,1.173875,1.010169,0.751315,1.073453,1.305283,1.010747,1.245384,0.834639,1.215273,0.866972,0.945905,-0.815334,-0.287687,-0.781322,0.989411,0.968518,'\'(14.9-27.8]\'',0.901688,0.726413,0.511516,0.881176,0.305767,0.378509,0.935417,-0.268598,0.402488,1.169276,-0.987636,-0.846486,-1.159302,0.950095,0.887335,0.959428,0.92527,0.945974,1.076251,0.031169,-0.050279,0.107979,-1.53711,-0.496443,-1.487123,-1.35476,-1.46419,-1.357496,-1.365751,-1.339204,-0.74166,-1.466934,0.96776,0.915229,1.205966,0.83341,-1.475915,-0.212048,0.376715,0.326678,-0.206171,-0.52528,-0.670307,0.794713,1.118634,0.540929,-0.159047,0.220412,-0.498899,-0.02157,-0.768343,-0.628109,-0.848661,-0.829762,-0.802468,-0.746541,-0.641168,-0.413214,-0.203319,0.150903,0.349647,0.568276,0.876988,1.091162,-0.793049,-0.82882,0.040088,-0.718364,0.935521,0.970975,1.191783,1.977753,2.796722,2.236432,0.921101,0.580991,1.116401,0.826643,1.020981,0.554361,0.861593,0.931611,0.974863,0.927286,0.906061,0.281351,1.075117,0.854488,0.802729,0.770545,0.807497,0.812505,1.542733,0.442133,'\'(-inf-6.266667]\''
0.802871,0.849874,0.869054,0.854772,0.712659,0.948819,1.086027,1.077783,0.979511,0.72487,1.040304,1.074904,0.791631,1.183862,0.476191,1.09104,0.92416,0.488467,-1.255887,-0.528217,-0.926643,0.987195,0.964343,'\'(14.9-27.8]\'',0.341302,1.036858,0.625847,0.957759,0.427661,0.523464,0.921245,-0.341016,0.429575,1.124482,-1.020815,-0.885367,-1.18308,0.940589,0.867462,0.949086,0.906579,0.931018,1.06962,-0.230615,-0.332544,-0.144973,-1.600057,-0.822562,-1.34571,-1.349252,-1.620364,-1.518556,-1.318071,-1.456084,-0.925634,-1.618543,0.981101,0.893396,1.21596,0.818901,-1.311986,-0.200865,0.387921,0.342807,-0.170294,-0.473345,-0.730195,0.81616,1.139603,0.540948,-0.169476,0.170156,-0.390944,-0.026804,-0.821058,-0.583951,-1.038407,-0.929806,-0.884102,-0.830819,-0.710034,-0.409484,-0.148343,0.044657,0.296979,0.562001,0.982662,1.26667,-0.772133,-0.856429,-0.134806,-0.696053,0.946244,0.980925,1.190282,1.777109,2.369483,1.906616,0.923298,0.577211,1.116512,0.831554,1.026825,0.542804,0.861789,0.9318,0.975627,0.92928,0.90835,0.270287,1.085632,0.855806,0.807636,0.779284,0.810231,0.805162,1.524829,0.461557,'\'(-inf-6.266667]\''
0.820991,0.867414,0.864891,0.827008,0.645488,0.983642,1.06115,1.059533,0.991201,0.649269,1.093209,1.001384,0.882663,1.092833,0.670159,1.068596,0.955198,1.167383,-1.32359,-0.445734,-0.938736,0.996749,0.955334,'\'(14.9-27.8]\'',0.783567,1.059272,0.827868,1.146663,0.619208,0.576068,0.906443,-0.443978,0.406881,1.075209,-1.073656,-0.951532,-1.214783,0.932404,0.847941,0.915362,0.88908,0.915126,1.072272,-0.165169,-0.473677,-0.144973,-1.712839,-1.371035,-1.507325,-1.261129,-1.675485,-1.679615,-1.524684,-1.526213,-1.08972,-1.698806,0.707808,0.672511,1.195036,0.798428,-0.902162,-0.198448,0.405186,0.388956,-0.039322,-0.280613,-0.865197,0.884679,1.228801,0.540431,-0.172646,-0.02313,0.128109,-0.383542,-1.054112,-0.501524,-1.186345,-1.062121,-1.032252,-0.879442,-0.668714,-0.174526,0.391103,0.509485,0.816131,1.164348,1.759365,2.475165,-0.745928,-0.921884,-0.352638,-0.095535,0.878839,0.887113,1.061216,1.254905,1.453491,1.424787,0.901179,0.550976,0.973932,0.835469,0.962491,0.528588,0.862951,0.904223,0.939857,0.904962,0.890158,0.266677,1.013935,0.851395,0.816224,0.782562,0.821168,0.77118,1.484944,0.541923,'\'(6.266667-10.533333]\''
0.840166,0.882771,0.856628,0.74647,0.574214,0.937867,1.019328,1.047446,0.954387,0.534539,1.092632,1.037029,0.833934,0.963799,0.479619,0.982222,1.050399,1.082258,-1.626087,-0.523427,-1.022058,0.989349,0.932253,'\'(14.9-27.8]\'',1.010194,1.289024,0.790683,1.136452,0.573025,0.784382,0.882771,-0.577483,0.371741,0.976662,-1.119534,-1.007466,-1.244505,0.917326,0.811711,0.881548,0.852492,0.896898,1.074703,-0.426954,-0.755943,-0.397925,-2.040692,-1.63786,-1.679041,-1.608113,-1.923526,-1.970049,-1.588257,-1.853479,-1.477558,-1.698806,0.586464,0.531733,1.168985,0.775657,-0.246444,-0.190091,0.413935,0.442344,0.137407,-0.012934,-0.640224,0.871022,1.229846,0.537417,-0.153413,-0.089929,0.36535,-0.409196,-1.215031,-0.987256,-1.340715,-1.213799,-1.138074,-1.022068,-0.765126,-0.234198,0.504489,0.814944,0.921466,1.352581,1.98128,2.931485,-0.707383,-0.951599,-0.653604,0.058273,0.796115,0.784773,0.915641,0.874878,0.807758,0.989105,0.856024,0.553154,0.694269,0.840749,0.832759,0.51431,0.863925,0.850744,0.867217,0.855571,0.857863,0.252206,0.866317,0.849792,0.826039,0.801132,0.828004,0.7483,1.452413,0.50264,'\'(6.266667-10.533333]\''
0.822665,0.850414,0.848813,0.730873,0.533814,0.840342,0.942271,0.999405,0.865623,0.400976,1.023854,1.062337,0.71823,0.814776,0.254335,0.868616,1.124322,1.104313,-2.029375,-0.56866,-1.103165,0.989849,0.908219,'\'(14.9-27.8]\'',0.900314,1.555759,1.137006,1.531278,0.869052,0.991059,0.860804,-0.72626,0.332941,0.904991,-1.194904,-1.094778,-1.299987,0.904924,0.781286,0.845036,0.822494,0.881474,1.073819,-0.623292,-1.179342,-0.587639,-2.281992,-1.578566,-1.961867,-1.982636,-1.923526,-2.160152,-1.747189,-2.017112,-1.497447,-2.091205,0.496241,0.278813,1.143354,0.730597,-0.00055,-0.172251,0.443837,0.510214,0.266877,0.179707,-0.403071,0.850296,1.225414,0.536303,-0.074842,-0.094197,0.36773,-0.257118,-1.278843,-1.119729,-1.392172,-1.365478,-1.313435,-1.271663,-1.147332,-0.633254,0.236484,0.350116,0.515173,0.80043,1.53745,2.655688,-0.747932,-1.007959,-0.746344,0.137076,0.747093,0.719389,0.804584,0.734029,0.25581,0.769229,0.835398,0.529193,0.571362,0.848074,0.771719,0.503884,0.865418,0.826657,0.83507,0.832603,0.842754,0.237431,0.79713,0.849792,0.835853,0.818611,0.833472,0.712576,1.419085,0.47068,'\'(6.266667-10.533333]\''
0.797496,0.800197,0.861015,0.67033,0.560048,0.756869,0.835751,0.88552,0.76554,0.091525,1.022173,0.914611,0.660379,0.674704,0.278629,0.762514,1.096797,1.135953,-2.405975,-0.785775,-1.253663,0.975954,0.868206,'\'(14.9-27.8]\'',1.269785,1.73956,1.257442,1.750814,0.936434,1.028467,0.836532,-0.940066,0.267787,0.819243,-1.313694,-1.253712,-1.356459,0.894379,0.756664,0.815538,0.798718,0.858105,1.078903,-0.688738,-1.179342,-0.650877,-2.46559,-1.978803,-2.163886,-2.142359,-1.868406,-2.183915,-1.778976,-1.958671,-1.552142,-2.100123,0.229613,0.057928,1.091801,0.705382,0.081414,-0.176122,0.458039,0.527873,0.293221,0.215452,-0.283664,0.833246,1.215662,0.536323,-0.009831,-0.103529,0.368497,-0.106157,-1.281617,-1.116785,-1.360011,-1.352569,-1.328553,-1.245731,-1.112899,-0.633254,0.136841,0.296992,0.582889,0.869449,1.542733,2.515281,-0.758911,-1.019393,-0.823203,0.094827,0.763944,0.743552,0.806085,0.686193,0.280012,0.742083,0.841686,0.524324,0.595432,0.854189,0.782038,0.502539,0.869574,0.833696,0.842495,0.838921,0.843059,0.234563,0.806787,0.84793,0.834626,0.809871,0.836206,0.649919,1.348303,0.49957,'\'(6.266667-10.533333]\''
0.766715,0.756187,0.849966,0.687678,0.552674,0.737321,0.813054,0.8722,0.768723,0.14748,1.000467,0.901417,0.644186,0.659624,0.335254,0.759596,0.948114,1.226893,-2.402615,-0.718725,-1.268278,0.986195,0.851372,'\'(14.9-27.8]\'',1.168146,2.046642,1.640951,2.416232,1.163566,1.365136,0.812514,-1.094755,0.174814,0.741813,-1.387836,-1.344434,-1.404014,0.880308,0.72958,0.773091,0.775083,0.83567,1.07824,-0.623292,-1.461608,-0.714115,-2.22429,-1.578566,-1.800252,-1.828421,-2.125634,-2.14959,-1.540577,-1.958671,-1.48253,-2.242814,0.203248,0.001045,1.034506,0.675546,-0.16448,-0.179317,0.46312,0.527873,0.206388,0.070653,-0.448102,0.818305,1.229168,0.536179,0.058763,-0.150536,0.539938,-0.059566,-1.262196,-1.24337,-1.305339,-1.304161,-1.27413,-1.15821,-0.992384,-0.551205,0.116226,0.443081,0.733368,1.045133,1.621989,2.450093,-0.7291,-0.991708,-0.831046,0.191669,0.76088,0.74071,0.783573,0.557303,0.193287,0.473345,0.850759,0.585861,0.637463,0.860037,0.804553,0.508532,0.871388,0.844826,0.855923,0.848274,0.847882,0.234732,0.834297,0.846899,0.840761,0.810964,0.845776,0.626443,1.302054,0.51088,'\'(6.266667-10.533333]\''
0.760337,0.738745,0.838884,0.629647,0.522668,0.686465,0.765033,0.828817,0.745073,0.141772,0.968168,0.851143,0.591122,0.587524,0.258025,0.701782,0.983287,1.176979,-2.602116,-0.894333,-1.36528,0.97355,0.820697,'\'(14.9-27.8]\'',1.188749,2.2551,1.880158,2.703842,1.36117,1.436444,0.786475,-1.267672,0.049629,0.642626,-1.45952,-1.429699,-1.453551,0.865387,0.700914,0.73505,0.750568,0.81604,1.074703,-0.885076,-1.602741,-0.903829,-2.426247,-1.534095,-1.790151,-2.087282,-2.437982,-2.268405,-1.747189,-1.993736,-1.651588,-2.198223,0.173837,-0.043472,0.980634,0.646828,-0.00055,-0.176921,0.474411,0.548769,0.255842,0.140779,-0.404271,0.791753,1.229288,0.534942,0.077932,-0.188001,0.68721,0.047131,-1.273294,-1.258089,-1.334283,-1.313843,-1.268083,-1.174418,-1.009601,-0.465427,0.233048,0.522766,0.725844,1.038859,1.764649,2.640644,-0.735831,-0.94279,-0.880456,0.283289,0.737901,0.709439,0.744553,0.513454,0.489766,0.440771,0.848291,0.601237,0.609984,0.864879,0.797155,0.509846,0.872175,0.842798,0.850697,0.845202,0.844921,0.223262,0.831311,0.844894,0.849348,0.832812,0.851244,0.605652,1.275624,0.523218,'\'(6.266667-10.533333]\''
0.766284,0.73639,0.834913,0.608197,0.531494,0.66135,0.736125,0.799205,0.73309,0.145708,0.948639,0.800626,0.570328,0.556112,0.298557,0.680765,1.037777,1.177639,-2.666513,-1.021515,-1.432459,0.98529,0.81902,'\'(14.9-27.8]\'',1.014315,2.273031,2.157105,2.719159,1.733665,1.289151,0.765297,-1.431721,-0.066771,0.554958,-1.532842,-1.531335,-1.483273,0.854747,0.673302,0.694221,0.732473,0.790334,1.100564,-0.885076,-1.179342,-0.840591,-2.497063,-1.771272,-1.89116,-2.274543,-2.13482,-2.247282,-1.794869,-2.0288,-1.61181,-2.144714,0.187236,-0.11388,0.943489,0.62042,-0.16448,-0.170223,0.475202,0.547709,0.317024,0.235007,-0.258934,0.767041,1.237656,0.532167,0.038733,-0.117105,0.29096,0.67695,-1.281617,-1.299303,-1.350363,-1.336433,-1.295294,-1.161452,-0.971724,-0.506451,0.222741,0.443081,0.778511,1.126701,1.722379,2.640644,-0.741761,-0.932242,-0.774186,0.091978,0.751688,0.727917,0.746054,0.544015,0.550608,0.353906,0.850806,0.595279,0.618903,0.872677,0.804553,0.514126,0.871764,0.846382,0.853478,0.847295,0.848767,0.224915,0.844081,0.846384,0.849348,0.828442,0.856713,0.59129,1.252396,0.517553,'\'(6.266667-10.533333]\''
0.800922,0.734305,0.837347,0.609375,0.545541,0.630014,0.692698,0.745321,0.679356,0.041039,0.919169,0.736227,0.552925,0.511146,0.34753,0.648734,0.968708,1.109358,-2.771997,-0.88635,-1.402941,0.992721,0.805605,'\'(14.9-27.8]\'',0.887953,2.631667,2.510644,3.425421,1.900985,1.215505,0.754155,-1.548477,-0.186831,0.520402,-1.601249,-1.62615,-1.511014,0.851096,0.66275,0.670839,0.728013,0.777247,1.087302,-0.885076,-1.320475,-0.903829,-2.334448,-1.682331,-1.961867,-2.037713,-1.951086,-2.154871,-1.69951,-1.888543,-1.537225,-2.126878,0.208179,0.023613,0.917402,0.599087,-0.328409,-0.169015,0.484978,0.560365,0.329676,0.254199,-0.209196,0.739839,1.259097,0.539493,-0.026348,-0.074841,0.071037,1.308918,-1.273294,-1.331685,-1.343931,-1.352569,-1.310412,-1.073932,-0.847766,-0.450509,0.109354,0.336835,0.959086,1.333757,1.785783,2.460122,-0.774217,-0.954779,-0.635762,-0.24697,0.756284,0.736445,0.761062,0.611782,0.865575,0.451629,0.854485,0.590666,0.648746,0.879962,0.816393,0.521647,0.870745,0.851369,0.858847,0.850677,0.851575,0.219451,0.855644,0.847472,0.851802,0.837181,0.853978,0.580984,1.234213,0.536182,'\'(6.266667-10.533333]\''
0.755277,0.713085,0.838084,0.605053,0.572798,0.620058,0.681485,0.727698,0.661259,0.01656,0.904259,0.717118,0.544224,0.489754,0.369632,0.641713,0.872692,1.148621,-2.785083,-0.910829,-1.419288,0.991753,0.797747,'\'(14.9-27.8]\'',0.706652,2.176648,2.962973,4.172526,2.185656,1.151211,0.739605,-1.664247,-0.241736,0.46281,-1.657367,-1.699819,-1.539745,0.843982,0.653253,0.649435,0.724263,0.765562,1.07824,-0.754184,-1.320475,-0.714115,-2.216421,-1.326564,-1.709344,-2.015682,-2.02458,-2.036057,-1.715403,-1.830103,-1.363195,-2.073369,0.182153,0.070101,0.885706,0.57444,-0.738233,-0.160555,0.486661,0.543883,0.276872,0.16952,-0.215102,0.699135,1.248935,0.525732,-0.011133,-0.056373,-0.046496,1.928457,-1.264971,-1.334629,-1.343931,-1.349342,-1.307388,-0.885925,-0.699704,-0.424402,-0.08306,0.310273,1.372902,1.584735,1.806918,2.164266,-0.795613,-0.955076,-0.4493,-0.372295,0.805306,0.796144,0.795579,0.71144,1.219198,0.522206,0.875264,0.59829,0.76606,0.884611,0.87343,0.531828,0.871656,0.875633,0.8919,0.87284,0.867601,0.217325,0.922353,0.850909,0.854256,0.839366,0.85808,0.557498,1.200188,0.568237,'\'(6.266667-10.533333]\''
0.745263,0.699985,0.846987,0.645375,0.580339,0.657464,0.713417,0.770928,0.714959,0.258527,0.867379,0.745463,0.586986,0.57033,0.393486,0.690338,0.859373,1.093063,-2.591947,-1.055041,-1.469738,0.985071,0.794196,'\'(14.9-27.8]\'',0.738242,1.563604,2.964083,3.210989,2.615691,1.002749,0.728716,-1.73568,-0.301034,0.412896,-1.681534,-1.725058,-1.561542,0.837686,0.635138,0.627312,0.708668,0.759019,1.066083,-0.623292,-1.038209,-0.524401,-2.192816,-1.608213,-1.648738,-1.905528,-2.006206,-2.051899,-1.69951,-1.72491,-1.502419,-1.966351,0.260136,0.1402,0.863083,0.551687,-0.902162,-0.159798,0.487385,0.545767,0.271036,0.157514,-0.161027,0.648328,1.236598,0.527861,0.024978,-0.048818,-0.124466,2.67207,-1.278843,-1.34346,-1.343931,-1.362251,-1.316459,-0.966962,-0.754797,-0.498992,-0.223935,0.336835,1.222423,1.515716,1.727663,1.983744,-0.797937,-0.977335,-0.447536,-0.38891,0.774667,0.759188,0.786575,0.618426,1.031294,0.587355,0.874512,0.588936,0.76951,0.889294,0.870018,0.530024,0.872202,0.875574,0.892508,0.871638,0.867906,0.197558,0.918192,0.854202,0.862844,0.843736,0.874485,0.547395,1.189056,0.578892,'\'(6.266667-10.533333]\''
0.740464,0.693386,0.871072,0.646962,0.611254,0.692772,0.742329,0.802949,0.752623,0.291038,0.908254,0.771628,0.628799,0.618997,0.445612,0.725209,0.868785,1.063429,-2.449534,-0.998633,-1.4553,0.978983,0.780749,'\'(14.9-27.8]\'',0.467663,2.036556,2.957978,2.986347,2.706543,0.968615,0.722719,-1.798738,-0.374241,0.363623,-1.698738,-1.747568,-1.570458,0.835734,0.628807,0.611934,0.706367,0.747334,1.06962,-0.623292,-1.038209,-0.461163,-2.213798,-1.489624,-1.709344,-1.966113,-1.99702,-1.996452,-1.60415,-1.759974,-1.383085,-2.01986,0.304621,0.145108,0.846345,0.527968,-1.230021,-0.16031,0.4873,0.537879,0.292528,0.186802,-0.098555,0.609012,1.222618,0.527348,0.01503,0.008751,-0.345236,3.981035,-1.278843,-1.355235,-1.347147,-1.365478,-1.322506,-0.931306,-0.744467,-0.554935,-0.399169,0.310273,1.305187,1.534539,1.648407,1.728004,-0.80571,-0.972085,-0.417341,-0.558385,0.811434,0.806094,0.827096,0.726056,1.265586,0.801803,0.882962,0.597008,0.808661,0.895489,0.884814,0.505719,0.87701,0.885454,0.903712,0.880285,0.875781,0.18177,0.942906,0.859558,0.861617,0.838274,0.878586,0.543433,1.177492,0.595975,'\'(6.266667-10.533333]\''
0.747088,0.691546,0.846122,0.650242,0.566376,0.720263,0.765282,0.831495,0.788732,0.410221,0.904897,0.786026,0.660746,0.673405,0.455307,0.75703,0.904094,1.190411,-2.317879,-0.919343,-1.432363,0.963996,0.758589,'\'(14.9-27.8]\'',0.331687,1.866204,3.276551,3.185462,3.05254,0.913906,0.715618,-1.848987,-0.388151,0.320109,-1.711846,-1.765985,-1.575412,0.831863,0.618782,0.597005,0.697248,0.74266,1.050611,-0.688738,-0.897076,-0.397925,-2.216421,-1.534095,-1.699243,-1.905528,-2.088887,-2.014934,-1.60415,-1.771662,-1.417891,-2.010942,0.311087,0.117439,0.818146,0.519055,-1.311986,-0.159306,0.487048,0.532994,0.344755,0.272208,0.010793,0.577189,1.195259,0.526048,-0.020271,0.035873,-0.463452,5.417612,-1.281617,-1.372898,-1.363227,-1.381614,-1.340646,-0.996136,-0.809889,-0.603418,-0.49194,0.243869,1.162232,1.4216,1.585003,1.597627,-0.82911,-1.007961,-0.458319,-0.584969,0.805306,0.798987,0.834599,0.699481,1.211803,0.989105,0.887851,0.614403,0.830922,0.902695,0.894779,0.513607,0.879137,0.891396,0.911849,0.885005,0.880176,0.192093,0.950403,0.862336,0.86039,0.821888,0.89089,0.52595,1.15185,0.598339,'\'(6.266667-10.533333]\''
0.738977,0.691202,0.849165,0.663903,0.585173,0.72762,0.771911,0.840335,0.798794,0.368132,0.940582,0.796681,0.668601,0.681906,0.488865,0.759036,1.205829,1.101406,-2.296419,-0.962447,-1.458509,0.962653,0.745898,'\'(14.9-27.8]\'',0.856363,1.616279,3.413082,3.352242,3.165348,0.810567,0.709779,-1.91303,-0.427683,0.274675,-1.733556,-1.79327,-1.588291,0.830131,0.604185,0.579289,0.683499,0.73378,1.066746,-0.688738,-0.61481,-0.334687,-2.350185,-1.711978,-1.719444,-2.076266,-2.144007,-2.083583,-1.65183,-1.78335,-1.467613,-2.11796,0.346881,0.147233,0.798352,0.530794,-1.311986,-0.156684,0.491473,0.533229,0.422807,0.394177,0.173109,0.540025,1.181624,0.520846,-0.049423,0.053873,-0.547748,7.201019,-1.289941,-1.375842,-1.379308,-1.39775,-1.349717,-1.009102,-0.813333,-0.595959,-0.498811,0.243869,1.154708,1.434148,1.611421,1.602642,-0.843375,-1.016951,-0.480083,-0.712668,0.817562,0.816043,0.845105,0.869563,1.425591,1.004035,0.895467,0.605465,0.865203,0.907991,0.908696,0.55326,0.883499,0.899908,0.922496,0.892822,0.890524,0.205148,0.955803,0.873276,0.872658,0.866676,0.886789,0.522928,1.083489,0.596375,'\'(6.266667-10.533333]\''
0.745461,0.699102,0.844873,0.684839,0.599418,0.740866,0.769492,0.827305,0.774073,0.418441,0.879738,0.793026,0.699186,0.727208,0.58375,0.790903,0.839874,1.043034,-2.163039,-0.910829,-1.435962,0.965588,0.753361,'\'(27.8-inf)\'',0.29735,1.509809,3.472467,3.08165,3.365981,0.663742,0.709653,-1.935692,-0.404989,0.261876,-1.745435,-1.808959,-1.594236,0.831453,0.597854,0.569756,0.678443,0.736116,1.068735,-0.361507,-0.473677,-0.144973,-2.208553,-1.519271,-1.709344,-1.883497,-2.098074,-1.97797,-1.540577,-1.66647,-1.37314,-2.082287,0.33894,0.117516,0.76754,0.544846,-1.475915,-0.155599,0.496387,0.533465,0.473821,0.471398,0.295469,0.518038,1.217925,0.524275,-0.068203,0.069771,-0.623897,8.033734,-1.289941,-1.384674,-1.38574,-1.400977,-1.367858,-1.041517,-0.809889,-0.581041,-0.488504,0.164184,1.079469,1.440423,1.632556,1.617685,-0.849946,-1.027842,-0.404204,-0.690831,0.852796,0.858685,0.873619,0.981179,1.501559,1.073256,0.903988,0.589673,0.913203,0.914578,0.929032,0.567782,0.885304,0.909599,0.937955,0.901518,0.897361,0.207475,0.972734,0.877486,0.876339,0.865584,0.89089,0.502105,1.051764,0.60501,'\'(6.266667-10.533333]\''
0.756609,0.705725,0.86124,0.694282,0.606812,0.752029,0.780035,0.840549,0.769169,0.400052,0.88158,0.834538,0.71068,0.733225,0.527758,0.786594,1.102435,0.94978,-2.163644,-0.87624,-1.419585,0.94164,0.732122,'\'(27.8-inf)\'',0.38388,1.509809,3.516868,2.851902,3.528001,0.623997,0.701762,-1.973132,-0.405721,0.235,-1.758953,-1.823283,-1.606125,0.825976,0.58097,0.557346,0.669551,0.730508,1.057463,-0.426954,-0.332544,-0.081735,-2.226912,-1.578566,-1.78005,-1.817405,-2.171567,-1.869717,-1.111459,-1.643093,-1.368168,-1.984187,0.340123,0.079685,0.730737,0.541825,-1.55788,-0.153591,0.495579,0.530933,0.474745,0.470306,0.338102,0.487303,1.2014,0.535518,-0.049705,0.087148,-0.700279,7.454202,-1.289941,-1.38173,-1.38574,-1.394523,-1.349717,-1.00586,-0.744467,-0.554935,-0.471324,0.243869,1.162232,1.559637,1.669542,1.642758,-0.836323,-1.021073,-0.477338,-0.717415,0.860456,0.870056,0.887126,1.054261,1.374497,1.18048,0.905316,0.603575,0.917015,0.918335,0.931667,0.577504,0.885948,0.910531,0.939986,0.902658,0.898949,0.198671,0.97391,0.880121,0.876339,0.868861,0.89089,0.487907,1.030341,0.621428,'\'(6.266667-10.533333]\''
0.767987,0.69947,0.856307,0.686219,0.608678,0.787162,0.812842,0.875501,0.797209,0.432435,0.908259,0.869317,0.747471,0.791746,0.552376,0.818664,1.263497,0.810448,-2.027454,-0.733093,-1.365813,0.953286,0.746095,'\'(27.8-inf)\'',0.441567,1.434719,3.549613,2.617049,3.677151,0.597344,0.701573,-2.016977,-0.37717,0.187646,-1.766326,-1.831469,-1.612069,0.828589,0.589588,0.53846,0.68367,0.725367,1.059452,-0.165169,-0.191412,0.107979,-2.140359,-1.489624,-1.810353,-1.751313,-2.006206,-1.943646,-1.524684,-1.841791,-1.398001,-1.796906,0.580186,0.361471,0.737627,0.545034,-1.639845,-0.157299,0.489774,0.520103,0.45672,0.444839,0.337825,0.454641,1.191076,0.530941,-0.116105,0.09743,-0.734108,5.76073,-1.292715,-1.387618,-1.382524,-1.400977,-1.355764,-0.960479,-0.696261,-0.554935,-0.512555,0.230588,1.275091,1.653754,1.674826,1.587598,-0.832797,-1.009681,-0.490671,-0.764412,0.888031,0.905591,0.93215,1.228329,1.506265,1.19541,0.906973,0.586565,0.939261,0.927604,0.944672,0.591476,0.881908,0.911297,0.948615,0.903686,0.904962,0.193678,0.985854,0.885276,0.881246,0.879785,0.893624,0.549593,1.030515,0.621119,'\'(6.266667-10.533333]\''
0.768017,0.697188,0.866364,0.704783,0.611223,0.798817,0.798716,0.856322,0.762018,0.388369,0.877112,0.857788,0.787124,0.815258,0.582317,0.816378,1.306581,0.926312,-2.018209,-0.824089,-1.401196,0.959843,0.750797,'\'(27.8-inf)\'',0.284988,1.434719,3.565153,2.989751,3.533301,0.625166,0.698511,-2.056389,-0.333977,0.136453,-1.769603,-1.834879,-1.615041,0.828054,0.587478,0.529377,0.683386,0.721627,1.056136,-0.426954,-0.473677,-0.144973,-2.166588,-1.4748,-1.658839,-1.966113,-1.886779,-1.906682,-1.477004,-1.713222,-1.402974,-1.787988,0.573557,0.562416,0.749213,0.556829,-1.55788,-0.152158,0.49812,0.53576,0.526163,0.547708,0.470797,0.435999,1.169974,0.525147,-0.142699,0.07062,-0.69263,4.150575,-1.287166,-1.38173,-1.366443,-1.391296,-1.355764,-0.999377,-0.710034,-0.521369,-0.481632,0.204027,1.169756,1.616107,1.711812,1.6227,-0.802585,-1.019205,-0.596548,-0.7008,0.869647,0.882849,0.926146,1.159233,1.445759,0.963317,0.904541,0.595343,0.923429,0.936504,0.935298,0.587716,0.883132,0.908349,0.945031,0.900304,0.904901,0.179881,0.979215,0.888254,0.884926,0.885247,0.899093,0.522837,1.004527,0.623674,'\'(6.266667-10.533333]\''
0.777911,0.70786,0.879271,0.74066,0.649862,0.82217,0.827129,0.888208,0.776902,0.42747,0.880961,0.904553,0.804348,0.867665,0.599542,0.857034,1.115382,1.07275,-1.846817,-0.817172,-1.401712,0.967961,0.756386,'\'(27.8-inf)\'',0.232796,1.327129,3.656729,2.56259,3.848256,0.552689,0.703561,-2.034712,-0.284928,0.16013,-1.769603,-1.827376,-1.625939,0.831705,0.595568,0.529377,0.693158,0.713682,1.06542,-0.165169,-0.191412,0.171217,-2.082657,-1.548918,-1.790151,-1.657682,-1.941899,-1.80899,-1.572364,-1.654781,-1.179221,-1.850415,0.593445,0.437096,0.755202,0.565696,-1.72181,-0.149679,0.497464,0.533935,0.505596,0.510417,0.450957,0.41911,1.160593,0.535271,-0.131813,0.119605,-0.80244,3.364499,-1.278843,-1.369955,-1.353579,-1.378387,-1.340646,-0.976687,-0.696261,-0.551205,-0.505683,0.230588,1.199852,1.622382,1.653691,1.572555,-0.807073,-1.013494,-0.706346,-0.863628,0.888031,0.905591,0.939653,1.204412,1.607781,1.130261,0.905387,0.596656,0.915039,0.944483,0.93219,0.583803,0.886457,0.908515,0.946765,0.900565,0.908777,0.174282,0.979088,0.893953,0.88738,0.888524,0.897725,0.800229,0.97689,0.616789,'\'(6.266667-10.533333]\''
0.800309,0.737175,0.884812,0.766289,0.66499,0.834202,0.83481,0.881759,0.743496,0.434634,0.828047,0.933025,0.820734,0.908979,0.626487,0.883638,0.823091,1.110144,-1.726736,-0.564935,-1.315766,0.988818,0.774338,'\'(27.8-inf)\'',0.172362,1.094015,3.680594,2.201801,4.041318,0.546844,0.71161,-2.006139,-0.248325,0.170369,-1.754857,-1.806912,-1.619995,0.837906,0.595919,0.529827,0.69205,0.715084,1.076693,0.227507,0.090854,0.234455,-1.948893,-1.296917,-1.56793,-1.453898,-2.171567,-1.941006,-1.524684,-1.643093,-1.368168,-1.993106,0.602815,0.446177,0.756896,0.572739,-1.803774,-0.152322,0.502747,0.541882,0.467928,0.449387,0.399651,0.415788,1.165942,0.532956,-0.203953,0.154866,-0.862374,2.651484,-1.267745,-1.352292,-1.350363,-1.371932,-1.325529,-0.928064,-0.654941,-0.543746,-0.512555,0.243869,1.282615,1.672577,1.643124,1.542468,-0.805149,-0.986391,-0.652624,-0.947653,0.888031,0.90417,0.960664,1.18448,1.716691,1.27956,0.905974,0.578108,0.913286,0.949467,0.927748,0.575059,0.889406,0.908786,0.947438,0.900775,0.910273,0.159439,0.976896,0.897934,0.891061,0.883062,0.903194,0.789116,0.961456,0.614622,'\'(6.266667-10.533333]\''
0.82135,0.76362,0.89157,0.757237,0.649256,0.880121,0.883216,0.940011,0.820273,0.540762,0.892414,0.97942,0.862784,0.959296,0.641309,0.925838,1.047145,1.088699,-1.546774,-0.652739,-1.328916,0.972239,0.772497,'\'(27.8-inf)\'',0.238289,1.139965,3.551278,2.082672,3.918667,0.501954,0.728117,-2.000228,-0.17951,0.149251,-1.74011,-1.788495,-1.611078,0.853992,0.598381,0.52524,0.694379,0.709475,1.171074,0.162061,0.37312,0.424169,-2.221667,-1.445153,-1.66894,-1.944082,-2.125634,-2.104705,-1.69951,-1.806726,-1.467613,-2.144714,0.684617,0.636882,0.770516,0.578769,-1.72181,-0.150048,0.511868,0.557775,0.466715,0.443839,0.398266,0.402593,1.158087,0.535658,-0.247387,0.098583,-0.755636,1.695731,-1.267745,-1.311078,-1.350363,-1.378387,-1.349717,-1.057724,-0.803003,-0.66682,-0.581275,0.137622,0.981657,1.402776,1.468762,1.442178,-0.756667,-1.001046,-0.782617,-0.781027,0.888031,0.902748,0.97117,1.126014,1.359034,1.039324,0.904646,0.578173,0.899123,0.952337,0.919185,0.569219,0.89173,0.907017,0.944527,0.899103,0.911158,0.14888,0.968128,0.902431,0.894741,0.887431,0.914131,0.77188,0.945073,0.606743,'\'(6.266667-10.533333]\''
0.823995,0.766736,0.898199,0.785006,0.647469,0.887593,0.880189,0.935527,0.810619,0.516099,0.889916,0.99307,0.881148,0.972681,0.673473,0.925373,1.207639,1.059225,-1.526345,-0.75225,-1.351358,0.957408,0.769209,'\'(27.8-inf)\'',0.114675,1.175829,3.556828,2.123516,3.90731,0.507098,0.723887,-1.990375,-0.139246,0.146692,-1.732737,-1.776899,-1.610088,0.849144,0.602251,0.528208,0.695203,0.703867,1.114489,0.031169,0.090854,0.171217,-2.34494,-1.593389,-1.911362,-1.993651,-2.162381,-2.073021,-1.492897,-1.865167,-1.48253,-2.082287,0.634662,0.597079,0.771812,0.592588,-1.639845,-0.145644,0.515082,0.563956,0.460995,0.432833,0.392361,0.394621,1.148267,0.537762,-0.241723,0.066102,-0.686076,1.062525,-1.273294,-1.30519,-1.363227,-1.388068,-1.364834,-1.116071,-0.878755,-0.696655,-0.519427,0.09778,0.861274,1.277287,1.437059,1.542468,-0.759872,-1.012605,-0.763206,-0.793844,0.878839,0.889956,0.954661,1.063562,1.409792,0.884596,0.903577,0.577372,0.887923,0.958554,0.911787,0.562585,0.894018,0.905862,0.942004,0.897418,0.909998,0.135825,0.959107,0.904579,0.898422,0.893986,0.912764,0.757859,0.933414,0.6008,'\'(6.266667-10.533333]\''
0.829851,0.773776,0.905662,0.809662,0.653196,0.900606,0.897481,0.961816,0.837316,0.628539,0.87698,1.016625,0.889301,0.993116,0.667879,0.942666,1.190064,1.149126,-1.438782,-0.602717,-1.296448,0.959749,0.770458,'\'(27.8-inf)\'',0.283615,0.966251,3.449712,1.994177,3.818729,0.501019,0.72092,-1.982493,-0.087269,0.141572,-1.725774,-1.768031,-1.606125,0.845682,0.605944,0.530546,0.695998,0.698725,1.076693,0.031169,0.090854,0.234455,-2.318711,-1.385859,-1.830555,-2.048728,-2.180754,-2.094144,-1.65183,-1.806726,-1.477558,-2.11796,0.656202,0.441617,0.770611,0.609715,-1.639845,-0.147201,0.517,0.562661,0.456315,0.422464,0.385532,0.39318,1.136044,0.543764,-0.235363,0.063329,-0.671519,0.661757,-1.273294,-1.331685,-1.350363,-1.384841,-1.373905,-1.193867,-0.944178,-0.756327,-0.595018,0.057938,0.6807,1.158073,1.35252,1.432149,-0.817971,-1.045341,-0.658113,-0.772007,0.881903,0.89422,0.948658,1.137973,1.444079,0.876452,0.908349,0.56773,0.910963,0.958185,0.91959,0.56552,0.89703,0.911509,0.948718,0.902633,0.912349,0.118858,0.969081,0.906669,0.904556,0.898355,0.922333,0.747939,0.927775,0.638353,'\'(6.266667-10.533333]\''
0.839919,0.778585,0.912292,0.811153,0.661432,0.913141,0.896206,0.958896,0.828015,0.544802,0.9022,1.019042,0.91588,1.010304,0.697663,0.947057,1.21271,1.12035,-1.400024,-0.646885,-1.318689,0.972083,0.778974,'\'(27.8-inf)\'',0.098193,1.596106,3.287096,1.915892,3.631725,0.574899,0.720952,-1.975103,-0.033827,0.151811,-1.72905,-1.763939,-1.619995,0.845241,0.607878,0.532435,0.699379,0.698258,1.043759,0.162061,0.231987,0.297693,-2.179702,-1.400682,-1.689142,-1.988143,-1.914339,-2.091504,-1.588257,-1.853479,-1.542198,-1.993106,0.705852,0.632128,0.781043,0.626622,-1.639845,-0.142142,0.525144,0.572314,0.455969,0.420009,0.388393,0.391758,1.132759,0.549071,-0.246254,0.069155,-0.675292,0.368626,-1.27052,-1.361123,-1.350363,-1.388068,-1.382975,-1.28787,-1.05092,-0.842106,-0.715277,0.004814,0.454982,0.957291,1.225712,1.251626,-0.829351,-1.066415,-0.588117,-0.780552,0.897222,0.912698,0.962165,1.19511,1.459205,1.086829,0.912086,0.556133,0.927728,0.963504,0.926988,0.570228,0.898791,0.915388,0.954501,0.906251,0.916134,0.121725,0.976356,0.909419,0.909463,0.903817,0.922333,0.731241,0.920299,0.661819,'\'(6.266667-10.533333]\''
0.841622,0.781504,0.914886,0.810697,0.677062,0.922753,0.890973,0.950592,0.812624,0.545879,0.879025,1.030417,0.940618,1.023765,0.702777,0.949354,1.166253,1.108385,-1.369888,-0.689989,-1.332046,0.968617,0.777593,'\'(27.8-inf)\'',0.30147,1.342819,3.305411,2.135429,3.559043,0.474366,0.718616,-1.978059,0.015954,0.137093,-1.724545,-1.753025,-1.624949,0.8431,0.612627,0.537381,0.70114,0.70153,1.00552,0.227507,0.37312,0.424169,-2.192816,-1.4748,-1.800252,-1.911036,-1.941899,-2.136389,-1.635937,-1.888543,-1.522309,-2.126878,0.825169,0.887599,0.811474,0.647704,-1.55788,-0.138557,0.53031,0.576847,0.437192,0.386173,0.360986,0.389487,1.12493,0.554942,-0.231115,0.096261,-0.72266,0.194288,-1.27052,-1.367011,-1.353579,-1.388068,-1.382975,-1.307319,-1.068137,-0.827188,-0.715277,0.004814,0.409838,0.925919,1.246846,1.251626,-0.860284,-1.076474,-0.601842,-0.815681,0.906414,0.924069,0.97267,1.172521,1.408447,1.172336,0.916223,0.564142,0.942044,0.976172,0.936345,0.571573,0.900239,0.918807,0.960206,0.909682,0.918881,0.117778,0.986394,0.910765,0.913144,0.901633,0.931903,0.707594,0.900676,0.678342,'\'(6.266667-10.533333]\''
0.843723,0.786239,0.9219,0.825851,0.698153,0.9135,0.886701,0.949983,0.81276,0.561968,0.872012,1.039438,0.926452,1.044566,0.660581,0.951654,1.001654,1.076333,-1.340712,-0.521299,-1.265925,0.958001,0.768485,'\'(27.8-inf)\'',0.076217,1.384286,3.393657,2.298805,3.607497,0.443037,0.727422,-1.970177,0.090625,0.141572,-1.724954,-1.750296,-1.629902,0.851379,0.623531,0.544935,0.713014,0.701997,1.016571,0.227507,0.37312,0.360931,-2.32658,-1.282094,-1.810353,-2.081774,-2.235874,-2.14959,-1.65183,-1.689846,-1.631699,-2.11796,0.721325,0.74261,0.820882,0.671232,-1.639845,-0.135649,0.53869,0.582027,0.437481,0.378715,0.357111,0.388002,1.116699,0.568519,-0.197796,0.134817,-0.787315,0.078685,-1.27052,-1.367011,-1.360011,-1.391296,-1.392046,-1.381874,-1.106013,-0.771245,-0.694661,-0.035028,0.236788,0.8569,1.326102,1.281713,-0.885607,-1.102507,-0.547727,-0.887364,0.929393,0.956761,1.005687,1.269521,1.629966,1.419358,0.925155,0.554756,0.991143,0.979798,0.959214,0.569066,0.901946,0.928628,0.973415,0.919073,0.927702,0.111942,1.011045,0.916378,0.921731,0.919111,0.93327,0.695937,0.836868,0.697257,'\'(6.266667-10.533333]\''
0.847249,0.791439,0.928882,0.834272,0.715058,0.915917,0.886429,0.936873,0.790555,0.517982,0.858901,1.039562,0.93154,1.054408,0.66114,0.955612,0.99306,1.090551,-1.306522,-0.53407,-1.294873,0.9733,0.76602,'\'(27.8-inf)\'',0.429205,1.357389,3.439722,2.269874,3.68245,0.346947,0.731462,-1.957861,0.130157,0.140293,-1.715533,-1.740064,-1.621977,0.854621,0.623355,0.549971,0.708526,0.700595,1.014361,0.227507,0.37312,0.360931,-2.321334,-1.43033,-1.658839,-2.076266,-2.272621,-2.14431,-1.69951,-1.888543,-1.562087,-2.046614,0.769768,0.631858,0.84012,0.686657,-1.639845,-0.125817,0.542156,0.581615,0.444068,0.377715,0.357849,0.390608,1.11494,0.573575,-0.197927,0.156089,-0.816653,-0.024994,-1.27052,-1.367011,-1.356795,-1.391296,-1.385999,-1.326768,-1.03026,-0.700385,-0.625942,-0.008467,0.364695,0.994938,1.426492,1.382004,-0.872705,-1.094688,-0.529296,-0.9111,0.941648,0.973818,1.0297,1.304069,1.705262,1.500794,0.931678,0.55828,1.018106,0.983259,0.972051,0.563074,0.90494,0.935419,0.981992,0.925874,0.933227,0.11066,1.026864,0.919614,0.927866,0.925665,0.938738,0.684062,0.828931,0.70642,'\'(6.266667-10.533333]\''
0.863996,0.811997,0.932533,0.839534,0.728274,0.950077,0.91127,0.970461,0.837613,0.507615,0.932336,1.061705,0.974283,1.078812,0.709411,0.972727,1.362726,1.169142,-1.223884,-0.615488,-1.294249,0.958469,0.774469,'\'(27.8-inf)\'',0.12841,1.187036,3.358136,1.844415,3.760432,0.318891,0.734019,-1.974118,0.118444,0.115336,-1.712256,-1.731879,-1.625939,0.85821,0.628983,0.556716,0.708014,0.702464,1.009719,0.227507,0.37312,0.360931,-2.337071,-1.652684,-2.072977,-2.037713,-1.877592,-1.954207,-0.92074,-1.853479,-1.67645,-1.663134,0.725846,0.485323,0.843005,0.709815,-1.639845,-0.124117,0.54781,0.581144,0.46943,0.413551,0.395314,0.397282,1.108908,0.691156,0.260224,0.189302,-0.864773,-0.059553,-1.273294,-1.361123,-1.356795,-1.388068,-1.373905,-1.138761,-0.847766,-0.644443,-0.564095,0.057938,0.808607,1.333757,1.511031,1.477279,-0.885366,-1.086571,-0.601057,-0.933886,0.966159,1.005089,1.059715,1.439603,1.869973,1.538798,0.942044,0.564558,1.06918,0.988822,0.996558,0.563961,0.907827,0.946961,0.996558,0.936651,0.939515,0.099866,1.054787,0.921504,0.929092,0.924573,0.94284,0.927118,1.3722,0.686963,'\'(6.266667-10.533333]\''
0.899822,0.857258,0.93564,0.875867,0.740894,0.942575,0.912007,0.978474,0.839024,0.537069,0.921629,1.081753,0.958566,1.103574,0.676893,0.974232,1.30318,1.161327,-1.202389,-0.59101,-1.269853,0.946386,0.772792,'\'(27.8-inf)\'',0.118795,1.034616,3.271556,2.011195,3.568128,0.349518,0.73424,-1.979044,0.135282,0.089739,-1.701196,-1.710733,-1.629902,0.858745,0.632148,0.561752,0.721224,0.700595,1.007951,-0.099723,0.37312,0.171217,-2.098394,-1.133857,-1.598233,-1.872482,-2.070513,-2.102065,-1.492897,-1.818414,-1.522309,-2.144714,0.845128,0.723249,0.863268,0.726335,-1.803774,-0.122151,0.551562,0.579495,0.487282,0.442929,0.437392,0.40192,1.103408,0.704281,0.200873,0.221307,-0.900283,-0.069422,-1.276069,-1.364067,-1.353579,-1.391296,-1.379952,-1.119312,-0.813333,-0.636984,-0.567531,0.044657,0.861274,1.402776,1.526882,1.477279,-0.895303,-1.093629,-0.564393,-1.001296,0.987606,1.029252,1.100236,1.540589,1.882746,1.675881,0.950448,0.583682,1.093917,0.991994,1.013397,0.566162,0.911634,0.954389,1.007865,0.945521,0.947879,0.107287,1.075371,0.926344,0.93768,0.93222,0.956511,0.918209,1.358367,0.686399,'\'(6.266667-10.533333]\''
0.907956,0.870358,0.934871,0.83289,0.756994,0.928348,0.906866,0.973987,0.829961,0.607263,0.878534,1.086315,0.935498,1.124015,0.637925,0.97945,1.14378,1.14213,-1.169231,-0.526088,-1.23514,0.944856,0.777527,'\'(27.8-inf)\'',-0.179253,1.129879,3.150565,2.123516,3.353867,0.231217,0.741152,-1.951456,0.136014,0.105097,-1.688498,-1.69368,-1.623958,0.863876,0.644635,0.572274,0.72895,0.698725,0.998446,0.423845,0.655386,0.424169,-2.394773,-1.741625,-2.113381,-1.828421,-2.336928,-2.191836,-1.763083,-1.958671,-1.48253,-2.26065,0.760293,0.632128,0.867992,0.739948,-1.72181,-0.117276,0.562298,0.588855,0.581857,0.582453,0.58845,0.406549,1.084419,0.711745,0.191619,0.251295,-0.930574,-0.078055,-1.278843,-1.367011,-1.360011,-1.394523,-1.373905,-1.031792,-0.74791,-0.569853,-0.546915,0.084499,1.071945,1.528265,1.627273,1.512381,-0.900512,-1.094502,-0.497337,-1.031203,1.018245,1.06763,1.142258,1.620315,1.888125,1.761389,0.958804,0.586373,1.114397,1.000211,1.028294,0.575181,0.916478,0.962159,1.019262,0.953896,0.955662,0.112043,1.093987,0.931184,0.940134,0.930035,0.959245,0.912186,1.339141,0.682246,'\'(6.266667-10.533333]\''
0.901575,0.863538,0.944447,0.866769,0.774239,0.964023,0.914227,0.977774,0.840711,0.660643,0.8717,1.078577,0.998785,1.158334,0.688833,1.000492,0.991059,1.265985,-1.078183,-0.507463,-1.223614,0.949914,0.785582,'\'(27.8-inf)\'',-0.088602,0.975217,3.145569,1.744007,3.51513,0.252259,0.748285,-1.919927,0.246557,0.121735,-1.679486,-1.680038,-1.621977,0.868975,0.653077,0.588282,0.734546,0.701062,0.993363,0.292953,0.655386,0.424169,-2.177079,-1.593389,-1.941665,-1.66319,-2.098074,-2.083583,-1.778976,-1.888543,-1.417891,-2.055533,0.951854,0.980807,0.893655,0.763726,-1.885739,-0.111869,0.572057,0.591974,0.687986,0.738167,0.748275,0.415009,1.067451,0.717581,0.204195,0.238342,-0.89523,-0.181864,-1.284392,-1.372898,-1.369659,-1.39775,-1.382975,-1.080415,-0.806446,-0.603418,-0.588146,0.071218,0.974134,1.434148,1.590287,1.462236,-0.925755,-1.103315,-0.490475,-1.083422,1.039692,1.094636,1.184279,1.678781,2.337213,1.723386,0.972297,0.581088,1.168477,1.004599,1.06101,0.585943,0.920169,0.974656,1.038965,0.968167,0.966926,0.104588,1.131598,0.936798,0.93768,0.926758,0.956511,0.917026,1.334936,0.690406,'\'(6.266667-10.533333]\''
0.897105,0.859957,0.941149,0.855856,0.784926,0.952501,0.907954,0.970196,0.834405,0.53982,0.912321,1.060136,0.982294,1.139968,0.640178,0.981768,1.094486,1.147741,-1.141602,-0.508527,-1.234927,0.955128,0.78384,'\'(27.8-inf)\'',0.257518,0.983062,3.062319,1.79336,3.378852,0.320527,0.758227,-1.894803,0.358564,0.126854,-1.667198,-1.66162,-1.619004,0.877286,0.670136,0.599973,0.752983,0.700595,0.991594,0.423845,0.514253,0.424169,-2.297729,-1.667507,-1.810353,-1.999159,-2.033767,-2.088863,-1.794869,-1.853479,-1.467613,-2.002024,0.811126,0.666212,0.901401,0.782638,-1.803774,-0.111767,0.582725,0.597625,0.746511,0.822845,0.836031,0.424966,1.056885,0.726213,0.222072,0.259388,-0.907225,-0.197322,-1.29549,-1.375842,-1.382524,-1.410659,-1.385999,-1.060966,-0.78923,-0.59223,-0.591582,0.111061,1.049373,1.490618,1.627273,1.477279,-0.942824,-1.088161,-0.447339,-1.171719,1.065735,1.125907,1.223299,1.844876,2.575875,1.787177,0.984602,0.590634,1.216351,1.012618,1.090128,0.597224,0.923307,0.987354,1.05674,0.980865,0.978861,0.113561,1.16581,0.942497,0.943814,0.938774,0.957878,0.877688,1.313452,0.698682,'\'(6.266667-10.533333]\''
0.894222,0.859098,0.937946,0.832462,0.78328,0.956765,0.91935,0.98266,0.840405,0.573995,0.906979,1.081581,0.97928,1.159633,0.589152,0.981243,1.166065,1.148011,-1.138597,-0.551099,-1.246735,0.95313,0.785089,'\'(27.8-inf)\'',0.094072,0.88892,3.167215,1.728691,3.551471,0.329412,0.761604,-1.870663,0.4347,0.146692,-1.663921,-1.650706,-1.62693,0.879112,0.672774,0.604559,0.753409,0.710877,0.979438,0.489291,0.655386,0.487407,-2.279369,-1.652684,-1.699243,-2.081774,-1.941899,-1.991172,-1.429324,-1.841791,-1.447724,-1.92176,0.886521,0.911867,0.922741,0.808455,-1.639845,-0.102631,0.594891,0.608986,0.787299,0.879055,0.895642,0.442324,1.049689,0.731505,0.230188,0.264685,-0.895281,-0.236634,-1.298264,-1.387618,-1.388956,-1.42034,-1.404139,-1.167935,-0.889085,-0.66682,-0.674046,0.044657,0.808607,1.314934,1.526882,1.361946,-0.961416,-1.108478,-0.456555,-1.124248,1.081054,1.145807,1.250313,1.749205,2.283094,1.692169,0.992982,0.626159,1.236761,1.018414,1.107289,0.610371,0.926837,0.995465,1.068447,0.989462,0.987438,0.117272,1.183218,0.948855,0.946268,0.936589,0.960612,0.878724,1.311949,0.694716,'\'(6.266667-10.533333]\''
0.906636,0.876221,0.944383,0.862344,0.799385,0.967017,0.918962,0.982686,0.838663,0.561499,0.909378,1.084316,0.999867,1.16555,0.584309,0.985428,1.139189,1.215368,-1.120818,-0.404227,-1.194294,0.948977,0.777198,'\'(27.8-inf)\'',0.458049,0.983062,3.132804,1.420658,3.64081,0.309539,0.768769,-1.852928,0.514496,0.154371,-1.658596,-1.63911,-1.630893,0.885124,0.682623,0.611214,0.762897,0.705269,0.987174,0.423845,0.37312,0.424169,-2.156096,-1.489624,-1.507325,-1.97162,-1.96946,-1.943646,-1.620043,-1.806726,-1.328389,-1.895006,0.821035,0.803202,0.927506,0.817243,-1.639845,-0.098166,0.607343,0.628411,0.834268,0.94818,0.967526,0.448381,1.04582,0.736464,0.220254,0.224945,-0.812124,-0.348031,-1.298264,-1.390561,-1.388956,-1.417113,-1.407163,-1.252214,-0.947621,-0.655631,-0.684353,0.031376,0.612985,1.208269,1.542733,1.346902,-0.988582,-1.115408,-0.47871,-1.083422,1.070331,1.12875,1.253315,1.758506,2.113677,1.666381,0.992982,0.644226,1.215308,1.022364,1.100296,0.621683,0.930626,0.994404,1.065808,0.98914,0.986858,0.12186,1.17048,0.951031,0.947495,0.939866,0.957878,0.875821,1.313374,0.690234,'\'(6.266667-10.533333]\''
0.918622,0.893541,0.94922,0.875897,0.798627,0.983542,0.945257,1.012777,0.865831,0.604234,0.931358,1.119558,1.006186,1.173182,0.598057,1.004939,1.160541,1.255004,-1.047745,-0.314826,-1.148329,0.947166,0.781801,'\'(27.8-inf)\'',0.044627,0.920301,3.151675,1.609562,3.58327,0.28312,0.770725,-1.828789,0.591363,0.166529,-1.650813,-1.630243,-1.624949,0.885533,0.691065,0.618589,0.773776,0.706671,0.961755,0.423845,0.514253,0.424169,-2.116754,-1.207976,-1.830555,-1.850451,-1.914339,-1.983251,-1.763083,-1.818414,-1.318445,-1.957433,0.878181,0.833692,0.936126,0.827658,-1.72181,-0.091489,0.634602,0.664435,0.85524,0.976194,0.996686,0.461677,1.042934,0.758806,0.270986,0.254465,-0.84104,-0.322526,-1.303813,-1.390561,-1.388956,-1.423568,-1.404139,-1.26518,-0.947621,-0.678008,-0.680917,0.071218,0.597937,1.220818,1.521599,1.361946,-1.003568,-1.127129,-0.490671,-1.184537,1.082586,1.141542,1.266822,1.767808,2.14393,1.747816,0.999904,0.671038,1.225102,1.028746,1.108336,0.630304,0.936686,1.000641,1.073156,0.996127,0.991681,0.120072,1.177881,0.955614,0.952402,0.944236,0.961979,0.88422,1.313261,0.691652,'\'(6.266667-10.533333]\''
0.917175,0.893148,0.947522,0.898167,0.800812,1.005807,0.967705,1.04109,0.890306,0.637516,0.953239,1.152038,1.027649,1.185264,0.567928,1.019918,1.212894,1.297229,-0.995065,-0.471277,-1.213335,0.961904,0.795544,'\'(27.8-inf)\'',0.06935,0.985304,3.190525,1.97886,3.471976,0.268624,0.774892,-1.81401,0.633824,0.169729,-1.64303,-1.620011,-1.620986,0.888744,0.694406,0.627672,0.774259,0.708541,0.954682,0.358399,0.514253,0.424169,-2.216421,-1.682331,-1.881059,-1.889005,-1.859219,-1.914603,-1.715403,-1.701534,-1.3085,-1.859333,0.998201,1.226539,0.966936,0.838071,-1.72181,-0.067033,0.665968,0.705286,0.839584,0.948908,0.969464,0.485122,1.040204,0.75131,0.226041,0.145512,-0.627883,-0.564734,-1.29549,-1.378786,-1.395388,-1.430022,-1.428327,-1.433737,-1.188652,-0.88686,-0.818356,-0.074871,0.18412,0.762784,1.209861,1.146322,-1.036745,-1.149678,-0.451849,-1.059211,1.074927,1.133014,1.24431,1.717315,1.778878,1.646022,1.008261,0.7032,1.238876,1.033566,1.120091,0.633423,0.943193,1.00821,1.083583,1.004799,0.998365,0.115585,1.191064,0.96137,0.957309,0.963899,0.957878,0.893834,1.316475,0.704961,'\'(6.266667-10.533333]\''
0.913504,0.889567,0.952102,0.878527,0.822666,1.003105,0.964565,1.032536,0.865432,0.640952,0.916052,1.16629,1.025481,1.203788,0.595738,1.028728,1.102539,1.324593,-0.968574,-0.234472,-1.126973,0.973488,0.803468,'\'(27.8-inf)\'',0.212193,0.864264,3.22882,1.660617,3.665794,0.307201,0.781804,-1.792826,0.687997,0.190206,-1.641392,-1.612508,-1.627921,0.894284,0.697396,0.63037,0.776674,0.707606,0.947167,0.423845,0.514253,0.424169,-2.045938,-1.63786,-1.759848,-1.73479,-1.657111,-2.012294,-1.635937,-1.72491,-1.457669,-1.948515,0.858035,0.877629,0.972585,0.83046,-1.72181,-0.066091,0.669367,0.705168,0.828029,0.927898,0.948425,0.493058,1.038143,0.759452,0.259672,0.136609,-0.588996,-0.607657,-1.301039,-1.375842,-1.398604,-1.436476,-1.431351,-1.472635,-1.298838,-0.991285,-0.84928,-0.06159,0.108881,0.57455,1.072484,1.11122,-0.959252,-1.151362,-0.566549,-0.96047,1.10097,1.164285,1.259318,1.726616,1.754676,1.496722,1.014032,0.693366,1.250062,1.038197,1.129313,0.630793,0.947063,1.012961,1.090789,1.010671,1.002364,0.098752,1.204915,0.964692,0.958536,0.964991,0.957878,0.903787,1.319086,0.713267,'\'(6.266667-10.533333]\''
0.914465,0.890106,0.95713,0.916442,0.833979,1.027706,0.978515,1.055082,0.876565,0.696813,0.909747,1.20157,1.06014,1.218169,0.610617,1.047175,0.990687,1.244562,-0.907555,-0.316955,-1.139657,0.96818,0.809551,'\'(27.8-inf)\'',0.094072,1.277816,2.943548,1.578929,3.312984,0.235425,0.7884,-1.781988,0.751687,0.192766,-1.637295,-1.601594,-1.633865,0.900171,0.703903,0.645658,0.780253,0.713682,0.950482,0.423845,0.514253,0.487407,-2.150851,-1.563742,-1.709344,-1.811898,-1.987833,-1.851235,-1.635937,-1.736598,-1.164304,-1.92176,0.929026,0.998814,0.984352,0.850481,-1.72181,-0.06435,0.674886,0.711996,0.828087,0.923714,0.944549,0.505765,1.043502,0.766793,0.287899,0.162578,-0.610696,-0.577253,-1.303813,-1.369955,-1.395388,-1.433249,-1.428327,-1.420771,-1.240301,-1.03231,-0.81492,-0.035028,0.236788,0.68749,1.019648,1.16638,-0.943946,-1.152874,-0.567138,-0.878344,1.094842,1.154335,1.230803,1.633603,1.781567,1.267345,1.01583,0.710376,1.239307,1.048802,1.127911,0.626849,0.950611,1.014635,1.090931,1.011736,1.002425,0.099832,1.203326,0.965093,0.962217,0.958437,0.967447,0.904029,1.316446,0.716986,'\'(6.266667-10.533333]\''
0.911528,0.887064,0.952422,0.905439,0.840329,1.027288,0.963824,1.044181,0.836475,0.648814,0.871143,1.227296,1.074209,1.231245,0.581837,1.040122,0.879414,1.336563,-0.945656,-0.345691,-1.134459,0.973394,0.824609,'\'(27.8-inf)\'',-0.059759,0.900128,2.890267,1.655512,3.206989,0.173936,0.792724,-1.781495,0.776578,0.195965,-1.640982,-1.601594,-1.642782,0.904452,0.708828,0.651953,0.784912,0.719758,0.944514,0.489291,0.514253,0.487407,-1.885945,-1.044916,-1.820454,-1.624636,-1.592804,-1.758824,-1.413431,-1.795038,-1.179221,-1.663134,0.984451,1.122241,1.00823,0.860524,-1.72181,-0.053392,0.683585,0.720767,0.809368,0.88142,0.90247,0.521391,1.047631,0.780628,0.338803,0.177533,-0.610011,-0.566961,-1.301039,-1.378786,-1.398604,-1.433249,-1.428327,-1.469394,-1.288508,-1.073334,-0.893947,-0.048309,0.116405,0.593374,0.956243,1.046032,-0.93425,-1.143797,-0.559687,-0.854608,1.102502,1.164285,1.233805,1.723959,2.144602,1.226627,1.020754,0.741993,1.245805,1.058367,1.136593,0.624893,0.953372,1.019953,1.096339,1.016295,1.008255,0.095885,1.214476,0.970277,0.962217,0.956252,0.96608,0.910937,1.326292,0.725684,'\'(6.266667-10.533333]\''
0.936718,0.916478,0.953671,0.931995,0.843271,1.045907,0.977943,1.055336,0.832111,0.665834,0.857985,1.272154,1.096909,1.262878,0.591082,1.063077,0.819226,1.2764,-0.870877,-0.237665,-1.076855,0.969241,0.827108,'\'(27.8-inf)\'',0.107807,0.855298,2.800911,1.57042,3.122194,0.116656,0.798973,-1.754893,0.81611,0.207484,-1.628693,-1.576355,-1.649717,0.908984,0.711114,0.670839,0.782639,0.723497,0.940757,0.554737,0.37312,0.550645,-1.930533,-1.608213,-0.971975,-1.745805,-1.96946,-1.782587,-1.508791,-1.701534,-1.174249,-1.770152,1.081713,1.421803,1.04163,0.873848,-1.72181,-0.056731,0.691595,0.73254,0.817572,0.88715,0.909022,0.53506,1.041834,0.791077,0.311891,0.190696,-0.605903,-0.554072,-1.303813,-1.387618,-1.398604,-1.433249,-1.425304,-1.475877,-1.298838,-1.050957,-0.856151,-0.021747,0.108881,0.580825,0.993229,1.106206,-0.913815,-1.141448,-0.602626,-0.86078,1.099438,1.158599,1.223299,1.640246,2.190318,1.158764,1.021389,0.745292,1.226814,1.066772,1.127709,0.623578,0.959039,1.019882,1.094605,1.016283,1.009903,0.092579,1.20501,0.975289,0.967124,0.961714,0.970182,0.923721,1.34014,0.730488,'\'(6.266667-10.533333]\''
0.944237,0.936643,0.964433,0.95007,0.861801,1.067321,0.994286,1.068609,0.827539,0.741601,0.821006,1.315552,1.122929,1.295393,0.634667,1.092478,0.661651,1.193417,-0.772788,-0.162633,-1.025387,0.981293,0.849531,'\'(27.8-inf)\'',-0.172386,0.894524,2.738751,1.567016,3.038912,0.120163,0.810241,-1.724349,0.880532,0.217082,-1.613537,-1.555892,-1.642782,0.918271,0.72747,0.683519,0.799485,0.726301,0.938988,0.620183,0.514253,0.677121,-1.854471,-1.415506,-1.658839,-1.299683,-1.941899,-1.742982,-1.492897,-1.72491,-0.990274,-1.957433,1.110526,1.46748,1.071433,0.88338,-1.803774,-0.049337,0.703895,0.744607,0.82982,0.905796,0.92877,0.556956,1.051219,0.8036,0.319084,0.235296,-0.667349,-0.493862,-1.301039,-1.364067,-1.392172,-1.426795,-1.425304,-1.492084,-1.302281,-1.080793,-0.863023,-0.035028,0.063737,0.568276,0.945676,1.091162,-0.910449,-1.149695,-0.614978,-0.910625,1.110161,1.16997,1.226301,1.665493,2.246454,1.283632,1.028664,0.762399,1.249088,1.073387,1.141136,0.622355,0.963302,1.02718,1.103985,1.023666,1.019671,0.09683,1.22245,0.983165,0.965897,0.954067,0.974283,0.927686,1.333206,0.752749,'\'(6.266667-10.533333]\''
0.958474,0.95541,0.981375,0.961145,0.886775,1.078672,1.003817,1.074899,0.822423,0.721844,0.821483,1.336719,1.13584,1.32453,0.622858,1.106878,0.657103,1.247217,-0.732483,-0.318551,-1.093086,0.990348,0.85854,'\'(27.8-inf)\'',0.01441,0.82728,2.66105,1.726989,2.86175,0.052361,0.818542,-1.710063,0.925921,0.219002,-1.604935,-1.540885,-1.643773,0.925636,0.73257,0.692872,0.797667,0.730508,0.939209,0.620183,0.514253,0.677121,-1.904305,-1.563742,-1.78005,-1.294175,-1.923526,-1.674334,-1.190925,-1.537901,-1.094692,-1.850415,1.116242,1.444603,1.10493,0.901674,-1.803774,-0.048251,0.712595,0.752553,0.860786,0.942814,0.966972,0.585495,1.06706,0.808462,0.285684,0.27573,-0.716697,-0.441113,-1.29549,-1.378786,-1.372875,-1.410659,-1.41321,-1.495326,-1.302281,-1.080793,-0.893947,-0.008467,0.041165,0.555727,0.935108,1.036003,-0.931124,-1.13478,-0.560079,-0.988004,1.117821,1.17992,1.236806,1.64689,2.314019,1.382712,1.034388,0.75202,1.281102,1.076206,1.156641,0.623945,0.964142,1.033994,1.110608,1.02965,1.026081,0.092242,1.239921,0.987489,0.972031,0.961714,0.971549,0.933447,1.328403,0.779402,'\'(6.266667-10.533333]\''
0.966945,0.9638,0.977692,0.958287,0.894028,1.059971,0.97636,1.046049,0.755661,0.686488,0.739471,1.362466,1.126674,1.29271,0.60435,1.088179,0.479403,1.15743,-0.818214,-0.125383,-1.003474,0.992784,0.864392,'\'(27.8-inf)\'',0.149012,0.760035,2.596114,1.538085,2.857207,0.068026,0.826117,-1.691342,0.948615,0.216443,-1.58896,-1.52315,-1.630893,0.931995,0.737846,0.699707,0.802269,0.741258,0.938325,0.554737,0.655386,0.550645,-1.92791,-1.237623,-1.628536,-1.613621,-1.813285,-1.494793,-1.461111,-1.456084,-0.945523,-1.422344,1.057046,1.196513,1.121292,0.909826,-1.803774,-0.044011,0.719999,0.758616,0.838139,0.894063,0.918065,0.593145,1.06976,0.821261,0.302208,0.304354,-0.743747,-0.415119,-1.287166,-1.38173,-1.376092,-1.404204,-1.404139,-1.433737,-1.233415,-1.02858,-0.863023,-0.008467,0.161548,0.662392,0.993229,1.06609,-0.930083,-1.095204,-0.556158,-1.001771,1.120885,1.181341,1.271324,1.66815,2.44646,1.379998,1.040006,0.776846,1.291829,1.083975,1.164022,0.6226,0.968861,1.039677,1.116637,1.035076,1.031576,0.083539,1.254534,0.991814,0.976939,0.974823,0.972916,0.946292,1.330207,0.788967,'\'(6.266667-10.533333]\''
0.977534,0.975698,0.980286,0.968343,0.885536,1.085512,1.003381,1.06994,0.787347,0.699516,0.779813,1.389378,1.149981,1.329485,0.614185,1.104745,0.731118,1.1086,-0.770121,-0.224362,-1.041475,0.986414,0.859888,'\'(27.8-inf)\'',0.033639,0.860902,2.538394,1.538085,2.778468,0.138867,0.828547,-1.685923,0.963989,0.211963,-1.581996,-1.5136,-1.627921,0.934073,0.739429,0.712297,0.804456,0.743127,0.935673,0.620183,0.655386,0.613883,-1.775787,-1.356212,-1.497224,-1.338237,-1.785725,-1.690176,-1.286285,-1.654781,-1.13447,-1.689888,1.018581,1.08893,1.128791,0.921907,-1.72181,-0.042065,0.729018,0.768152,0.829242,0.876235,0.900348,0.615054,1.067901,0.835325,0.322546,0.302166,-0.719776,-0.43398,-1.284392,-1.38173,-1.376092,-1.404204,-1.407163,-1.475877,-1.274734,-1.039769,-0.876767,-0.035028,0.056213,0.580825,0.972094,1.041017,-0.929922,-1.107223,-0.52165,-1.006518,1.119353,1.178499,1.254816,1.571151,2.350323,1.27956,1.044472,0.795489,1.294027,1.090897,1.167468,0.62529,0.973714,1.044028,1.120582,1.039337,1.03536,0.07379,1.257266,0.997112,0.983073,0.967176,0.983852,0.958041,1.339604,0.798523,'\'(6.266667-10.533333]\''
0.977079,0.973686,0.980479,0.977722,0.881894,1.093229,1.015239,1.087803,0.810653,0.674446,0.82349,1.410678,1.153195,1.306927,0.566591,1.093113,1.015603,1.136535,-0.828651,-0.202011,-1.03278,0.996437,0.869981,'\'(27.8-inf)\'',-0.068,1.004356,2.548939,1.112626,2.982129,0.10029,0.831956,-1.684938,0.983023,0.203004,-1.577491,-1.506779,-1.62693,0.937409,0.748574,0.722729,0.8067,0.748269,0.931252,0.554737,0.655386,0.550645,-1.893814,-1.371035,-1.658839,-1.542021,-1.703045,-1.521196,-1.461111,-1.596341,-0.860994,-1.556116,1.030774,1.156324,1.132649,0.928232,-1.639845,-0.038194,0.736287,0.784575,0.815781,0.850586,0.874972,0.627771,1.067161,0.848204,0.384491,0.26699,-0.639636,-0.500979,-1.278843,-1.38173,-1.372875,-1.400977,-1.404139,-1.518016,-1.360817,-1.099441,-0.917999,-0.048309,-0.056646,0.411415,0.876988,0.970814,-0.909888,-1.122927,-0.536551,-0.926291,1.102502,1.154335,1.227802,1.474151,2.06023,1.185909,1.038901,0.802889,1.244135,1.098791,1.146237,0.626849,0.97602,1.037178,1.109935,1.032561,1.032125,0.071732,1.229883,1.000291,0.976939,0.974823,0.97565,0.974204,1.325758,0.801754,'\'(6.266667-10.533333]\''
0.975809,0.970129,0.977532,0.969075,0.863735,1.093869,1.018812,1.093973,0.800434,0.679852,0.806516,1.450227,1.150754,1.321266,0.567286,1.103162,0.984319,1.189576,-0.80456,-0.161568,-1.017568,1.003212,0.876064,'\'(27.8-inf)\'',0.202579,0.780209,2.62442,1.328759,2.988186,0.126943,0.834449,-1.673115,0.96106,0.213883,-1.573394,-1.50064,-1.625939,0.939141,0.746112,0.727136,0.801217,0.747801,0.935452,0.554737,0.655386,0.613883,-1.765295,-1.326564,-1.78005,-1.508975,-1.225336,-1.526476,-1.429324,-1.596341,-0.920662,-1.484771,1.012549,1.046036,1.137143,0.936408,-1.475915,-0.034282,0.748066,0.804706,0.81711,0.847767,0.873034,0.651571,1.061596,0.860216,0.440564,0.253133,-0.593569,-0.52889,-1.278843,-1.378786,-1.372875,-1.400977,-1.404139,-1.534224,-1.422796,-1.159113,-0.935179,-0.048309,-0.094266,0.298475,0.792449,0.945742,-0.894422,-1.126409,-0.608704,-0.839417,1.090246,1.137278,1.197786,1.375822,1.64711,1.101758,1.03668,0.789595,1.205123,1.112572,1.129803,0.625321,0.98132,1.033711,1.104657,1.028931,1.03066,0.060128,1.210378,1.004759,0.983073,0.977008,0.982485,0.992162,1.332321,0.804215,'\'(6.266667-10.533333]\''
0.957449,0.948566,0.983425,0.974962,0.873063,1.101071,1.011696,1.087142,0.801845,0.672664,0.811423,1.413873,1.172733,1.31917,0.572334,1.095172,1.071118,1.172561,-0.847977,-0.255226,-1.055511,0.998997,0.872809,'\'(27.8-inf)\'',0.085831,0.9797,2.488999,1.253878,2.837522,0.095614,0.839026,-1.65538,0.949347,0.220922,-1.562744,-1.485633,-1.621977,0.942572,0.747167,0.736399,0.798348,0.746399,0.931694,0.554737,0.655386,0.613883,-1.809883,-1.222799,-1.608334,-1.613621,-1.427443,-1.381259,-1.286285,-1.596341,-0.791382,-1.306408,1.070188,1.267269,1.16117,0.955157,-1.393951,-0.026151,0.756933,0.817538,0.833864,0.873598,0.900071,0.671209,1.058618,0.870846,0.530023,0.281408,-0.61638,-0.481181,-1.278843,-1.369955,-1.369659,-1.400977,-1.404139,-1.563397,-1.453786,-1.248621,-0.986718,-0.048309,-0.161981,0.242005,0.66564,0.870524,-0.877834,-1.130176,-0.60145,-0.904928,1.094842,1.140121,1.18578,1.47548,1.832661,1.058326,1.037455,0.779569,1.199085,1.122319,1.124145,0.628072,0.985217,1.034301,1.104114,1.028906,1.031698,0.054494,1.206058,1.007852,0.98798,0.986839,0.983852,1.01196,1.333724,0.827169,'\'(6.266667-10.533333]\''
0.951151,0.943954,0.984002,0.972201,0.898344,1.086341,1.006826,1.081433,0.781347,0.641598,0.794411,1.436873,1.148071,1.299441,0.590453,1.090717,1.030237,1.2145,-0.877402,-0.215847,-1.025483,0.993221,0.872776,'\'(27.8-inf)\'',0.253398,0.785812,2.436828,1.378112,2.710329,0.099121,0.844739,-1.648975,0.956668,0.231161,-1.564383,-1.492454,-1.616032,0.94786,0.752795,0.737118,0.80153,0.750606,0.932357,0.423845,0.514253,0.487407,-1.773164,-1.385859,-1.436618,-1.453898,-1.620364,-1.405022,-1.413431,-1.537901,-0.766521,-1.404507,0.807284,0.638698,1.134682,0.96382,-1.475915,-0.018142,0.76883,0.820658,0.835539,0.872143,0.899518,0.686086,1.059475,0.882958,0.571077,0.315423,-0.647634,-0.434832,-1.287166,-1.384674,-1.369659,-1.404204,-1.407163,-1.534224,-1.402136,-1.218785,-0.972974,-0.021747,-0.071694,0.354945,0.723761,0.905626,-0.886007,-1.132592,-0.576157,-1.008417,1.130076,1.185606,1.215796,1.616329,2.042079,1.069184,1.053063,0.760284,1.27953,1.12545,1.15833,0.618136,0.991286,1.05175,1.125757,1.045643,1.041374,0.047174,1.241224,1.012119,0.9843,0.992301,0.978384,1.035768,1.350612,0.836507,'\'(6.266667-10.533333]\''
0.972365,0.968363,0.987973,0.976867,0.914842,1.084428,0.995206,1.069247,0.769428,0.605137,0.791956,1.427758,1.156332,1.284312,0.612084,1.083533,0.944201,1.224178,-0.916463,-0.177001,-0.981804,1.005616,0.897534,'\'(27.8-inf)\'',-0.084482,0.794778,2.373557,1.407044,2.611148,0.1391,0.850388,-1.64799,0.916404,0.239479,-1.56684,-1.499276,-1.612069,0.953432,0.757368,0.732711,0.809285,0.756682,0.934347,0.423845,0.655386,0.487407,-1.529241,-1.356212,-1.305306,-1.21156,-1.308016,-1.167394,-1.349858,-1.245699,-0.597463,-1.163717,1.000064,1.137119,1.144711,0.982495,-1.475915,-0.011485,0.782325,0.828781,0.803302,0.813295,0.841014,0.696688,1.061588,0.890824,0.523255,0.346556,-0.672401,-0.388788,-1.284392,-1.390561,-1.366443,-1.404204,-1.407163,-1.54719,-1.388363,-1.215055,-0.997026,-0.035028,-0.109313,0.373768,0.723761,0.86551,-0.909648,-1.138095,-0.496945,-1.075352,1.157651,1.223983,1.245811,1.656192,2.060903,1.301276,1.065956,0.794016,1.335195,1.130554,1.185168,0.606365,0.996827,1.066476,1.14273,1.059245,1.050165,0.038909,1.274261,1.015928,0.98798,0.997763,0.979751,1.046268,1.3575,0.847651,'\'(6.266667-10.533333]\''
0.991526,0.994686,0.987781,0.964881,0.913865,1.095878,0.987331,1.059758,0.76953,0.637822,0.778869,1.398748,1.187596,1.29661,0.633846,1.076483,1.101982,1.314217,-0.954261,-0.23394,-1.008195,1.017918,0.910258,'\'(27.8-inf)\'',0.048747,0.839608,2.378553,1.293021,2.669445,0.07691,0.855154,-1.643064,0.845393,0.247798,-1.563973,-1.497911,-1.607115,0.95787,0.764403,0.745122,0.813859,0.760888,0.929484,0.489291,0.514253,0.487407,-1.350889,-1.356212,-1.13359,-1.090391,-1.041601,-1.280927,-1.349858,-1.187259,-0.681992,-1.44018,1.017527,1.216144,1.15901,0.983255,-1.475915,-0.004624,0.793464,0.838611,0.813066,0.820662,0.84895,0.715076,1.059782,0.90387,0.502858,0.342194,-0.631617,-0.391541,-1.278843,-1.384674,-1.369659,-1.400977,-1.407163,-1.534224,-1.378033,-1.222514,-1.086361,-0.06159,-0.094266,0.380043,0.702626,0.725104,-0.914696,-1.1294,-0.505964,-1.033102,1.160715,1.228247,1.251814,1.637589,1.887789,1.362353,1.073278,0.823006,1.353825,1.13406,1.196941,0.603492,1.001751,1.074163,1.151074,1.066913,1.058742,0.035536,1.290175,1.023489,0.990434,0.994486,0.983852,1.053788,1.36585,0.852151,'\'(6.266667-10.533333]\''
1.03052,1.041075,1.000079,1.021815,0.925435,1.109842,1.009087,1.081316,0.788672,0.675235,0.791342,1.432326,1.193029,1.319861,0.633011,1.09777,1.065678,1.289601,-0.884442,-0.179129,-0.974224,1.011174,0.907036,'\'(27.8-inf)\'',0.028145,0.746586,2.248681,1.206227,2.530895,0.230048,0.860109,-1.640108,0.900298,0.254197,-1.568479,-1.495865,-1.620986,0.962624,0.776362,0.74746,0.83613,0.76416,0.925063,0.489291,0.514253,0.487407,-1.565961,-1.519271,-1.184095,-1.095899,-1.638738,-1.201718,-1.508791,-1.047002,-0.537796,-1.449098,1.003718,1.012146,1.159666,0.992269,-1.55788,-0.000302,0.805075,0.860567,0.833286,0.839308,0.868328,0.724644,1.076204,0.92153,0.476588,0.308459,-0.539647,-0.436755,-1.278843,-1.378786,-1.372875,-1.404204,-1.407163,-1.54719,-1.412466,-1.211326,-1.110413,-0.06159,-0.124361,0.317298,0.718477,0.690002,-0.909488,-1.109421,-0.527924,-0.98658,1.145396,1.206927,1.229302,1.661507,1.789971,1.271417,1.068707,0.819803,1.29706,1.136555,1.173987,0.605693,1.006587,1.068055,1.141967,1.06171,1.056758,0.034929,1.263682,1.027928,0.996568,1.00104,0.987954,1.060083,1.376888,0.866719,'\'(6.266667-10.533333]\''
1.102583,1.128212,1.001232,1.033469,0.932672,1.120205,1.016192,1.088049,0.78815,0.741921,0.763685,1.457316,1.206462,1.345434,0.646257,1.123536,0.777833,1.299917,-0.796826,-0.130172,-0.97485,1.020229,0.906937,'\'(27.8-inf)\'',0.21494,0.886679,2.292527,1.40364,2.502883,0.032489,0.867968,-1.613505,0.933242,0.279794,-1.564792,-1.484951,-1.627921,0.968762,0.778648,0.753486,0.827494,0.770236,0.925947,0.620183,0.655386,0.613883,-1.190897,-0.778091,-0.860865,-1.018791,-1.206962,-1.13835,-1.206819,-1.210635,-0.602435,-1.163717,1.167614,1.272988,1.192226,1.002211,-1.475915,0.003692,0.825705,0.892059,0.850098,0.86141,0.890936,0.746168,1.073392,0.935736,0.35061,0.330097,-0.543236,-0.390222,-1.278843,-1.390561,-1.379308,-1.410659,-1.41321,-1.537465,-1.388363,-1.155383,-1.069181,-0.088151,-0.101789,0.361219,0.797732,0.750176,-0.923511,-1.082085,-0.49322,-1.020759,1.139268,1.198398,1.230803,1.685424,1.843418,1.321635,1.068377,0.822942,1.278848,1.14117,1.161539,0.605387,1.012432,1.066865,1.139263,1.060942,1.0563,0.03169,1.247513,1.031909,0.999022,1.00104,0.987954,1.069589,1.386823,0.887796,'\'(6.266667-10.533333]\''
0.954078,0.941623,1.013851,1.043271,0.950131,1.119657,1.004601,1.068054,0.786174,0.719791,0.769749,1.400608,1.217368,1.349616,0.655223,1.114282,0.876159,1.405817,-0.839834,-0.155183,-0.998865,1.024444,0.905688,'\'(27.8-inf)\'',0.247904,1.126517,2.260891,1.454695,2.437014,0.004433,0.873744,-1.589366,0.967649,0.293872,-1.555371,-1.47813,-1.615041,0.97298,0.785155,0.764008,0.833942,0.773975,0.921969,0.554737,0.655386,0.550645,-1.421705,-1.237623,-1.820454,-0.864576,-1.115095,-1.140991,-1.127352,-1.210635,-0.662103,-1.110208,1.072671,1.332035,1.206286,1.018945,-1.475915,0.006969,0.829608,0.892706,0.888113,0.921895,0.952577,0.759418,1.078915,0.948336,0.77544,0.37536,-0.601935,-0.313251,-1.284392,-1.384674,-1.379308,-1.413886,-1.416233,-1.501809,-1.322941,-1.099441,-1.034822,-0.074871,-0.003978,0.492983,0.887555,0.81035,-0.921829,-1.029915,-0.528512,-1.009841,1.156119,1.22114,1.24431,1.686753,2.059894,1.303991,1.07376,0.848153,1.28675,1.145676,1.165846,0.608689,1.018545,1.072488,1.145059,1.066405,1.061825,0.031184,1.25285,1.037923,1.003929,1.00541,0.992055,1.077931,1.382929,0.884629,'\'(6.266667-10.533333]\''
0.948449,0.935686,1.013371,1.056235,0.974609,1.137045,1.023652,1.089159,0.806183,0.787974,0.771152,1.426319,1.232522,1.362041,0.646786,1.128644,0.885185,1.411455,-0.792594,-0.112079,-0.93919,1.010362,0.907989,'\'(27.8-inf)\'',0.15588,0.772363,2.197066,1.241966,2.444586,0.004433,0.882834,-1.562271,1.001325,0.318189,-1.550456,-1.472673,-1.611078,0.980314,0.789376,0.764727,0.841016,0.780518,0.924621,0.685629,0.796519,0.740359,-1.227616,-0.941151,-1.386114,-0.798484,-1.124282,-1.035378,-1.333965,-1.152194,-0.473156,-1.021027,1.205985,1.559837,1.240229,1.022126,-1.639845,0.005372,0.832806,0.883111,0.947966,1.009666,1.041625,0.76738,1.075116,0.963541,0.825001,0.400215,-0.624749,-0.282715,-1.281617,-1.393505,-1.369659,-1.410659,-1.41321,-1.488843,-1.298838,-1.062146,-0.99359,-0.074871,0.018594,0.530629,0.935108,0.86551,-0.923592,-0.990858,-0.624782,-0.925816,1.174502,1.245304,1.274326,1.677452,2.081071,1.321635,1.088546,0.850011,1.358847,1.148444,1.198157,0.605081,1.02422,1.089772,1.164994,1.082275,1.072172,0.028115,1.286935,1.042964,1.01129,1.007595,1.001625,1.079823,1.373633,0.882229,'\'(6.266667-10.533333]\''
0.958317,0.944935,1.017022,1.03911,0.95948,1.151982,1.037046,1.106039,0.829209,0.81848,0.792064,1.440067,1.248617,1.363301,0.630055,1.125261,1.204978,1.374501,-0.810605,-0.073764,-0.899468,1.000777,0.906477,'\'(27.8-inf)\'',-0.188868,0.802623,2.161546,1.350883,2.347676,-0.001178,0.887379,-1.55094,1.013038,0.329707,-1.549227,-1.467898,-1.615041,0.984123,0.788497,0.767965,0.840902,0.782855,0.92219,0.751075,0.796519,0.740359,-1.101721,-1.089387,-1.335609,-0.484545,-1.161029,-1.151552,-1.159139,-1.304139,-0.542768,-1.270735,1.007279,1.19319,1.23502,1.021589,-1.475915,0.006887,0.842279,0.904891,0.999789,1.080519,1.113601,0.776975,1.072447,0.973232,0.847189,0.430218,-0.654399,-0.231242,-1.284392,-1.396449,-1.372875,-1.413886,-1.416233,-1.498567,-1.305724,-1.050957,-0.99359,-0.074871,0.003546,0.524355,0.956243,0.870524,-0.903237,-0.973344,-0.702033,-0.856507,1.157651,1.222562,1.24431,1.672137,2.004767,1.217126,1.080847,0.812724,1.299175,1.1569,1.167518,0.599884,1.028251,1.080376,1.150751,1.073145,1.068326,0.014655,1.255741,1.04766,1.010063,1.004317,0.998891,1.089067,1.379046,0.881273,'\'(6.266667-10.533333]\''
0.96987,0.961641,1.017663,1.034631,0.94907,1.148189,1.027438,1.092809,0.817345,0.80368,0.780933,1.421538,1.250916,1.355579,0.623024,1.114051,1.270749,1.413286,-0.85644,-0.120593,-0.927388,1.012923,0.916965,'\'(27.8-inf)\'',-0.15453,0.894524,2.177086,1.560209,2.275751,-0.022454,0.893186,-1.554881,0.989611,0.325868,-1.548817,-1.465852,-1.617023,0.990167,0.793069,0.767965,0.843743,0.790334,0.921969,0.620183,0.937652,0.677121,-1.560715,-1.341388,-1.264902,-1.294175,-1.326389,-0.950888,-1.111459,-1.035314,-0.37371,-1.128045,1.112541,1.299497,1.251245,1.02758,-1.393951,0.012745,0.846906,0.917429,1.044101,1.147279,1.181333,0.786857,1.074794,0.983683,0.865268,0.445695,-0.655781,-0.197852,-1.281617,-1.393505,-1.382524,-1.42034,-1.425304,-1.534224,-1.37459,-1.125547,-1.082925,-0.127994,-0.086742,0.392592,0.845286,0.735133,-0.911251,-0.943749,-0.656741,-0.883566,1.139268,1.195555,1.227802,1.673466,1.971824,1.039324,1.075147,0.810641,1.24241,1.156537,1.145967,0.593922,1.030629,1.072877,1.139366,1.066963,1.065366,0.003321,1.233187,1.050954,1.017424,1.011964,1.002992,1.09602,1.382708,0.90224,'\'(6.266667-10.533333]\''
0.98358,0.974496,1.025798,1.07038,0.961853,1.15166,1.024752,1.083275,0.812629,0.819196,0.767945,1.40619,1.260627,1.364661,0.668914,1.125485,1.03428,1.509463,-0.815761,-0.037046,-0.879178,1.017356,0.925086,'\'(27.8-inf)\'',0.102313,0.584079,2.128245,1.616369,2.184142,-0.020116,0.900193,-1.536653,1.01743,0.346985,-1.548817,-1.466534,-1.616032,0.995991,0.799225,0.77399,0.852691,0.795475,0.920863,0.685629,0.796519,0.613883,-1.311547,-0.985621,-1.355811,-0.886606,-1.271269,-0.974651,-1.047886,-1.269075,-0.423433,-0.976436,1.235232,1.696402,1.286421,1.022259,-1.55788,0.016555,0.852678,0.925022,1.104879,1.235778,1.271119,0.790201,1.070659,0.994744,0.865987,0.499549,-0.711646,-0.107008,-1.292715,-1.399393,-1.388956,-1.423568,-1.425304,-1.492084,-1.316054,-1.065875,-1.034822,-0.074871,0.041165,0.524355,0.950959,0.825394,-0.895944,-0.912448,-0.659486,-0.879293,1.151523,1.211191,1.223299,1.709342,2.063592,0.96196,1.076275,0.810994,1.229958,1.152507,1.140917,0.589795,1.034937,1.074575,1.138125,1.068536,1.067502,-0.000862,1.224133,1.056682,1.018651,1.00541,1.002992,1.110886,1.398808,0.895664,'\'(6.266667-10.533333]\''
0.983603,0.973613,1.025221,1.06046,0.968353,1.158463,1.035034,1.091452,0.825869,0.860628,0.770448,1.403183,1.263634,1.369585,0.675639,1.133002,0.939981,1.53708,-0.788381,-0.034386,-0.88649,1.024007,0.928933,'\'(27.8-inf)\'',0.110554,0.830642,2.071635,1.429167,2.190199,-0.034845,0.906001,-1.520396,1.040124,0.363623,-1.547179,-1.462441,-1.618014,1.000744,0.809249,0.777227,0.866184,0.797344,0.915559,0.620183,0.796519,0.677121,-1.550224,-1.237623,-1.517426,-1.200545,-1.280456,-1.13571,-1.0161,-1.315827,-0.592491,-1.19939,1.347966,1.92405,1.347969,1.02605,-1.475915,0.016043,0.86237,0.933204,1.153755,1.30936,1.345864,0.804602,1.070654,1.007044,0.897626,0.483137,-0.667774,-0.14191,-1.298264,-1.399393,-1.38574,-1.42034,-1.419257,-1.375391,-1.188652,-0.924155,-0.876767,-0.021747,0.327075,0.769058,1.162307,1.06609,-0.914055,-0.948931,-0.621056,-0.823277,1.153055,1.212612,1.221799,1.692068,2.097206,0.951102,1.082763,0.813524,1.249019,1.163703,1.15176,0.586829,1.03928,1.081142,1.145434,1.074619,1.073973,-0.00265,1.236173,1.062324,1.021105,1.004317,1.00846,1.119772,1.410276,0.88749,'\'(6.266667-10.533333]\''
0.977643,0.966817,1.028744,1.061044,0.980618,1.146494,1.002326,1.047932,0.783612,0.776836,0.743164,1.349901,1.273363,1.351527,0.667023,1.1045,0.938887,1.538954,-0.895039,-0.175404,-0.916824,1.019323,0.937645,'\'(27.8-inf)\'',-0.146289,0.737621,1.970624,1.284511,2.116759,-0.028299,0.909536,-1.528771,1.042321,0.366183,-1.555371,-1.47813,-1.615041,1.004804,0.816812,0.784332,0.87891,0.80529,0.910033,0.620183,0.796519,0.613883,-1.442688,-0.881856,-1.153792,-1.360267,-1.188589,-0.990493,-0.841274,-1.175571,-0.602435,-0.896173,1.046528,1.189055,1.357949,1.032523,-1.475915,0.020406,0.868966,0.937854,1.205404,1.386489,1.424023,0.817261,1.065565,1.019581,0.954619,0.522013,-0.701915,-0.078552,-1.298264,-1.399393,-1.388956,-1.426795,-1.425304,-1.310561,-1.09224,-0.898048,-0.8321,-0.048309,0.477554,0.944742,1.199293,1.131278,-0.904599,-0.924788,-0.682622,-0.781502,1.149991,1.209769,1.223299,1.725287,2.393349,0.891382,1.088111,0.834346,1.265464,1.167806,1.154986,0.583955,1.045545,1.086978,1.151462,1.080082,1.077606,-0.010949,1.241382,1.066734,1.019878,1.009779,1.007093,1.134504,1.420603,0.873105,'\'(6.266667-10.533333]\''
0.982595,0.972165,1.033068,1.074264,0.977603,1.168367,1.026086,1.074827,0.80504,0.869682,0.73686,1.395103,1.292686,1.397423,0.685221,1.135281,0.901938,1.518312,-0.778175,-0.068975,-0.860236,1.019511,0.939684,'\'(27.8-inf)\'',-0.171012,0.647962,1.928443,1.090502,2.145529,-0.087216,0.917584,-1.502661,1.063551,0.378341,-1.543082,-1.456984,-1.616032,1.011163,0.828771,0.791167,0.891836,0.804355,0.913569,0.685629,0.937652,0.740359,-1.345643,-1.059739,-1.143691,-1.051837,-1.262082,-1.077623,-0.698234,-1.140506,-0.766521,-1.00319,1.09209,1.18778,1.367802,1.044305,-1.475915,0.022249,0.878743,0.946036,1.267799,1.4819,1.520914,0.818937,1.060049,1.032536,0.980724,0.523111,-0.683614,-0.08554,-1.301039,-1.405281,-1.388956,-1.426795,-1.42228,-1.271663,-1.037147,-0.823458,-0.79774,-0.021747,0.575365,1.051408,1.310251,1.186438,-0.919665,-0.943213,-0.618704,-0.779128,1.165311,1.226826,1.227802,1.669479,2.459233,0.970104,1.094645,0.826882,1.284093,1.180082,1.163752,0.581907,1.050917,1.094099,1.158409,1.086127,1.08194,-0.023666,1.252564,1.070915,1.022331,1.004317,1.013929,1.148504,1.430209,0.866196,'\'(6.266667-10.533333]\''
0.994368,0.986492,1.041683,1.08538,0.979448,1.18803,1.039757,1.087872,0.818068,0.884753,0.749592,1.419518,1.317965,1.416014,0.635256,1.138518,1.00838,1.568978,-0.763899,-0.046093,-0.848282,1.022071,0.942709,'\'(27.8-inf)\'',0.006169,0.651324,1.904023,1.294722,2.021364,-0.177929,0.923107,-1.477537,1.070139,0.398818,-1.535709,-1.445388,-1.615041,1.015066,0.840202,0.80061,0.899647,0.804823,0.914453,0.685629,0.796519,0.677121,-1.521373,-1.133857,-1.173994,-1.239098,-1.49175,-0.972011,-1.127352,-0.941809,-0.383655,-1.243981,1.241685,1.58055,1.407634,1.058543,-1.393951,0.029254,0.888906,0.960222,1.31864,1.555846,1.595936,0.827259,1.059775,1.046099,0.998235,0.536415,-0.682121,-0.075664,-1.301039,-1.408224,-1.395388,-1.436476,-1.425304,-1.245731,-1.013044,-0.786163,-0.78056,-0.035028,0.635556,1.095329,1.363088,1.21151,-0.922069,-0.92937,-0.544197,-0.809985,1.157651,1.215455,1.226301,1.661507,2.449821,0.953817,1.09568,0.822686,1.270138,1.186458,1.155408,0.584689,1.056753,1.095172,1.157672,1.086697,1.083222,-0.026196,1.241922,1.075784,1.023558,0.997763,1.01803,1.162155,1.441597,0.859811,'\'(6.266667-10.533333]\''
0.984644,0.975158,1.050971,1.102828,0.986528,1.183689,1.041868,1.091013,0.832306,0.890909,0.767633,1.408442,1.307162,1.42942,0.64134,1.143165,1.09917,1.622563,-0.743488,0.003929,-0.810867,0.990411,0.913743,'\'(27.8-inf)\'',0.306964,0.593045,1.810782,1.192612,1.939597,0.030151,0.930051,-1.45586,1.068675,0.412257,-1.526288,-1.437885,-1.603152,1.020607,0.844423,0.792965,0.907346,0.809029,0.913348,0.620183,0.796519,0.740359,-1.324661,-0.659502,-1.062884,-1.266637,-1.151842,-0.866398,-1.031993,-1.105442,-0.294154,-0.976436,1.174255,1.340034,1.428383,1.072313,-1.393951,0.038614,0.909805,0.990066,1.377915,1.641252,1.682676,0.838946,1.058245,1.058842,1.065755,0.56201,-0.706273,-0.040467,-1.298264,-1.405281,-1.38574,-1.423568,-1.425304,-1.320285,-1.078466,-0.827188,-0.835536,-0.048309,0.454982,0.96984,1.299683,1.126264,-0.938577,-0.943632,-0.502435,-0.800016,1.163779,1.223983,1.223299,1.620315,2.256538,0.968747,1.097149,0.8133,1.267133,1.188141,1.153635,0.584995,1.059971,1.096445,1.158086,1.088147,1.087099,-0.031425,1.240429,1.081942,1.028466,1.009779,1.019397,1.179071,1.449562,0.862997,'\'(6.266667-10.533333]\''
0.991963,0.984726,1.062822,1.142071,0.992601,1.193108,1.038039,1.083805,0.832332,0.928905,0.752388,1.400472,1.329902,1.448525,0.621299,1.14248,1.159509,1.571803,-0.742172,-0.050882,-0.802952,1.008895,0.944714,'\'(27.8-inf)\'',-0.261663,0.533646,1.797462,1.121135,1.953225,-0.111531,0.938731,-1.42975,1.061355,0.432734,-1.517686,-1.429699,-1.594236,1.027595,0.854448,0.802138,0.915754,0.808562,0.916222,0.751075,0.937652,0.803597,-0.865667,-1.163505,-0.638644,-0.368884,-1.115095,-0.906003,-1.000206,-1.093754,-0.363766,-1.012109,1.31592,1.802285,1.465615,1.087002,-1.475915,0.040171,0.911269,0.987123,1.432858,1.722475,1.76508,0.849963,1.061569,1.074538,1.095371,0.611478,-0.759457,0.029198,-1.301039,-1.405281,-1.379308,-1.417113,-1.425304,-1.320285,-1.044034,-0.789893,-0.811484,-0.035028,0.462506,1.038859,1.357804,1.16638,-0.930243,-0.920816,-0.502043,-0.741625,1.172971,1.233933,1.221799,1.555205,2.031994,0.914456,1.102214,0.824352,1.273923,1.187567,1.157959,0.583619,1.065119,1.101975,1.161786,1.093709,1.091464,-0.03689,1.242431,1.087899,1.0346,1.015241,1.026232,1.167627,1.441942,0.871732,'\'(6.266667-10.533333]\''
0.998416,0.991693,1.065448,1.129647,1.004364,1.201095,1.043539,1.092544,0.863737,0.929955,0.797245,1.376457,1.340252,1.441164,0.648803,1.136825,1.40835,1.497328,-0.758707,-0.049818,-0.76146,1.006303,0.954545,'\'(27.8-inf)\'',-0.372916,0.487696,1.687571,1.0888,1.817703,-0.028299,0.94053,-1.443052,1.050373,0.412896,-1.515228,-1.427653,-1.591264,1.030239,0.867286,0.808793,0.931435,0.810899,0.911138,0.554737,1.078785,0.740359,-1.122703,-1.296917,-1.264902,-0.798484,-0.646573,-0.96937,-0.87306,-1.339204,-0.577574,-0.726728,1.253257,1.793242,1.505928,1.10037,-1.393951,0.047422,0.92219,0.996129,1.451865,1.744213,1.787135,0.869694,1.062622,1.086428,1.109923,0.630359,-0.772867,0.038114,-1.298264,-1.399393,-1.379308,-1.417113,-1.42228,-1.252214,-0.982054,-0.793622,-0.811484,-0.035028,0.612985,1.145524,1.347237,1.161365,-0.94595,-0.887278,-0.446555,-0.668994,1.185226,1.248147,1.235306,1.613671,2.15872,0.923957,1.109489,0.864202,1.295418,1.188345,1.169866,0.582029,1.070115,1.110004,1.169302,1.101576,1.096592,-0.050788,1.253994,1.093197,1.039507,1.026165,1.033068,1.174672,1.453819,0.880266,'\'(6.266667-10.533333]\''
1.013105,1.008742,1.055872,1.096631,0.987375,1.186879,1.008962,1.052473,0.79508,0.829934,0.738678,1.380485,1.347236,1.41198,0.607721,1.099012,1.37784,1.456054,-0.895394,-0.046625,-0.736909,1.011611,0.966776,'\'(27.8-inf)\'',-0.173759,0.359932,1.557145,1.122837,1.623885,-0.118311,0.946463,-1.415464,1.086245,0.446812,-1.516047,-1.43311,-1.585319,1.034394,0.870276,0.820754,0.926861,0.809497,0.909812,0.489291,0.937652,0.550645,-1.421705,-0.792915,-2.153785,-0.914145,-1.004854,-1.045939,-1.095566,-1.105442,-0.522879,-1.136963,1.089947,1.262091,1.514444,1.107124,-1.311986,0.055594,0.933935,1.006901,1.45822,1.75822,1.801438,0.885145,1.064781,1.100978,1.10876,0.641715,-0.766551,0.021741,-1.303813,-1.405281,-1.388956,-1.426795,-1.425304,-1.229523,-0.995827,-0.842106,-0.876767,-0.021747,0.6807,1.132975,1.289116,1.076119,-0.937535,-0.884293,-0.429497,-0.526104,1.208205,1.275153,1.257817,1.672137,2.057541,0.883239,1.116177,0.841938,1.303376,1.196114,1.175254,0.572124,1.077604,1.117113,1.176275,1.108203,1.102696,-0.059795,1.267145,1.098867,1.043188,1.030535,1.033068,1.177062,1.447796,0.885862,'\'(6.266667-10.533333]\''
1.029244,1.026626,1.069003,1.123945,1.014418,1.214903,1.043348,1.093494,0.842772,0.93683,0.764195,1.42157,1.368088,1.453258,0.592061,1.131785,1.403264,1.450707,-0.765463,0.084283,-0.684424,1.015702,0.96625,'\'(27.8-inf)\'',-0.306988,0.538129,1.612646,0.995199,1.757135,-0.078565,0.951229,-1.389847,1.122849,0.46089,-1.505397,-1.418103,-1.581356,1.03751,0.865879,0.825251,0.919674,0.818377,0.912243,0.358399,0.796519,0.550645,-1.274827,-1.178328,-1.466921,-0.748914,-1.151842,-0.8796,-0.952527,-1.432708,-0.259348,-0.878336,1.170085,1.094611,1.527678,1.120561,-1.311986,0.058892,0.944973,1.020262,1.518824,1.843444,1.887902,0.926147,1.070529,1.114891,1.113874,0.637571,-0.741594,-0.01899,-1.303813,-1.402337,-1.38574,-1.423568,-1.425304,-1.271663,-1.047477,-0.857024,-0.907691,-0.021747,0.582889,1.038859,1.267981,1.030988,-0.945629,-0.900497,-0.412243,-0.471986,1.214333,1.28226,1.268323,1.839561,2.26595,0.888668,1.119221,0.822622,1.292775,1.202638,1.173751,0.564541,1.082958,1.118952,1.17797,1.110916,1.104101,-0.071365,1.266923,1.102104,1.056683,1.065491,1.035802,1.173484,1.434825,0.898802,'\'(6.266667-10.533333]\''
1.04438,1.042375,1.085593,1.150278,1.037902,1.25178,1.073092,1.124601,0.869673,0.969643,0.789717,1.454522,1.411293,1.499818,0.599847,1.162392,1.346905,1.520549,-0.642626,0.092265,-0.683891,1.032718,0.983149,'\'(27.8-inf)\'',-0.228699,0.505628,1.618751,1.148365,1.697324,-0.145198,0.959846,-1.366692,1.153596,0.480727,-1.500482,-1.407871,-1.584328,1.044625,0.874849,0.830197,0.927713,0.818377,0.914011,0.816521,1.078785,0.803597,-1.206634,-0.600208,-1.2447,-0.881099,-1.252896,-0.805671,-0.491622,-1.05869,-0.458239,-0.815909,1.218166,1.297024,1.548536,1.13185,-1.393951,0.062804,0.951014,1.0235,1.549155,1.867638,1.912447,0.942771,1.079308,1.128493,1.111322,0.673775,-0.765277,-0.000583,-1.301039,-1.405281,-1.38574,-1.423568,-1.42228,-1.232765,-1.044034,-0.88313,-0.921435,-0.021747,0.665652,1.038859,1.225712,1.005916,-0.956207,-0.898375,-0.399303,-0.446826,1.223524,1.295053,1.272825,1.852849,2.265278,0.899526,1.124874,0.827747,1.278389,1.208742,1.168701,0.556042,1.093817,1.123586,1.182614,1.11654,1.108832,-0.082194,1.263841,1.110581,1.053002,1.040366,1.042638,1.182333,1.440924,0.914982,'\'(6.266667-10.533333]\''
1.053107,1.050005,1.090365,1.153958,1.060457,1.254881,1.062766,1.115162,0.853726,0.940579,0.77851,1.450648,1.428027,1.486893,0.626544,1.161711,1.160066,1.580954,-0.636759,0.186987,-0.544441,1.012142,0.983774,'\'(27.8-inf)\'',-0.241061,0.299412,1.377878,0.792681,1.526976,-0.137015,0.969693,-1.334178,1.209233,0.510164,-1.495157,-1.40105,-1.581356,1.052368,0.886632,0.844316,0.938508,0.823986,0.918432,0.685629,0.937652,0.740359,-1.015168,-0.689149,-0.860865,-0.859068,-0.912987,-0.744944,-0.809487,-1.128818,-0.244431,-0.7624,1.239624,1.175916,1.574338,1.141204,-1.393951,0.067904,0.958569,1.029445,1.575038,1.902382,1.947697,0.964684,1.086724,1.143437,1.13021,0.674351,-0.747908,-0.031,-1.298264,-1.405281,-1.392172,-1.433249,-1.428327,-1.213316,-1.047477,-0.935343,-0.97641,-0.06159,0.703272,1.02631,1.146456,0.920669,-0.954364,-0.8972,-0.37499,-0.501418,1.237312,1.31211,1.278828,1.890054,2.307968,0.900883,1.130045,0.828901,1.29923,1.214703,1.179493,0.550906,1.095917,1.128125,1.187375,1.121644,1.114082,-0.085263,1.276579,1.114533,1.054229,1.053475,1.037169,1.19386,1.448001,0.920393,'\'(-inf-6.266667]\''
1.06127,1.055721,1.096707,1.162973,1.064151,1.270126,1.072718,1.119355,0.848419,1.001459,0.74605,1.467724,1.448338,1.51984,0.586641,1.171958,1.100423,1.498922,-0.588684,0.283305,-0.512806,1.021977,0.988969,'\'(27.8-inf)\'',-0.018554,0.276997,1.269097,0.66164,1.43688,-0.178864,0.976479,-1.315458,1.220947,0.526161,-1.490651,-1.390818,-1.585319,1.05794,0.894194,0.849442,0.941121,0.827257,0.91379,0.751075,1.219918,0.866835,-1.109589,-1.178328,-1.072985,-0.47353,-1.390696,-0.935046,-0.888953,-1.082066,-0.413489,-1.092372,1.206149,1.244469,1.589411,1.15347,-1.393951,0.070178,0.969422,1.040158,1.563945,1.878279,1.923152,0.97974,1.091205,1.158047,1.15015,0.694221,-0.753373,-0.029607,-1.298264,-1.408224,-1.392172,-1.433249,-1.431351,-1.248972,-1.099126,-0.965179,-1.024514,-0.074871,0.620508,0.932193,1.104187,0.850466,-0.949957,-0.903978,-0.35656,-0.547941,1.226588,1.297896,1.266822,1.844876,2.311666,0.903598,1.135334,0.838447,1.289728,1.220398,1.179274,0.544516,1.103961,1.132098,1.191514,1.126897,1.118966,-0.098521,1.280677,1.12155,1.05791,1.054568,1.041271,1.196443,1.455335,0.932089,'\'(6.266667-10.533333]\''
1.072182,1.066686,1.106988,1.16253,1.069649,1.282643,1.070575,1.11617,0.848457,1.016599,0.739929,1.453792,1.475466,1.545753,0.601476,1.183125,0.957829,1.379156,-0.536004,0.408359,-0.381334,1.022696,1.002844,'\'(27.8-inf)\'',-0.250675,0.355449,1.176967,0.794383,1.252147,-0.180267,0.987115,-1.288363,1.254622,0.541519,-1.480001,-1.37513,-1.582347,1.066817,0.907033,0.860684,0.95274,0.833801,0.927715,0.816521,1.078785,0.866835,-1.36138,-1.089387,-0.759856,-1.404329,-1.059975,-0.956169,-0.888953,-0.684672,-0.592491,-1.145881,1.241779,1.282417,1.610135,1.157754,-1.311986,0.076711,0.978711,1.050165,1.585437,1.909113,1.954434,0.996265,1.101037,1.17418,1.172615,0.738868,-0.786677,0.014642,-1.29549,-1.408224,-1.388956,-1.430022,-1.431351,-1.219799,-1.085353,-0.931614,-1.01077,-0.088151,0.6807,0.951017,1.146456,0.86551,-0.943946,-0.901115,-0.343619,-0.578323,1.234248,1.306424,1.262319,1.810328,2.433014,0.930743,1.139013,0.845142,1.294556,1.225655,1.18277,0.538432,1.107813,1.135918,1.194994,1.130428,1.122201,-0.10294,1.286713,1.124815,1.060363,1.052383,1.045372,1.206978,1.462399,0.944246,'\'(-inf-6.266667]\''
1.080165,1.074389,1.113361,1.18267,1.073693,1.290711,1.083455,1.133775,0.852986,1.098502,0.713028,1.491157,1.478611,1.563423,0.59151,1.198505,0.837608,1.428553,-0.466273,0.335988,-0.446175,1.032063,1.007841,'\'(27.8-inf)\'',0.002048,0.338638,1.173637,0.750135,1.267289,-0.23521,0.994185,-1.254863,1.285369,0.570316,-1.472218,-1.364216,-1.579375,1.071727,0.91653,0.862752,0.959302,0.840812,0.929042,0.816521,0.937652,0.803597,-0.905009,-0.52609,-1.13359,-0.644268,-0.73844,-0.781908,-0.745914,-0.895057,-0.368738,-0.878336,1.975147,3.554756,1.770995,1.165998,-1.393951,0.080828,0.987915,1.060525,1.608777,1.942493,1.988299,1.018855,1.103975,1.188824,1.194537,0.759128,-0.79243,0.026513,-1.298264,-1.402337,-1.392172,-1.430022,-1.428327,-1.213316,-1.106013,-0.965179,-1.034822,-0.06159,0.703272,0.919644,1.104187,0.835423,-0.942344,-0.904313,-0.31264,-0.621522,1.234248,1.305003,1.265321,1.751863,2.359062,0.97689,1.142151,0.84386,1.287223,1.229502,1.181013,0.539013,1.11339,1.138465,1.196055,1.1335,1.126414,-0.103412,1.285887,1.1308,1.067724,1.054568,1.05084,1.222703,1.474361,0.962855,'\'(-inf-6.266667]\''
1.095104,1.089992,1.133379,1.188933,1.090938,1.284671,1.066152,1.113345,0.829854,1.003078,0.718526,1.466544,1.484483,1.537583,0.606922,1.177993,0.86943,1.344477,-0.530901,0.603657,-0.292206,1.035903,1.012148,'\'(27.8-inf)\'',0.028145,0.312861,1.090941,0.799488,1.132524,-0.234041,1.000371,-1.229739,1.297082,0.590793,-1.465254,-1.355348,-1.575412,1.076292,0.920751,0.861583,0.96183,0.847355,0.918874,0.816521,0.937652,0.803597,-1.169914,-0.867033,-0.870966,-0.90313,-1.262082,-0.858477,-0.793594,-1.047002,-0.249403,-1.208308,1.228883,1.316153,1.779798,1.174726,-1.311986,0.070526,0.99197,1.066941,1.658405,2.017985,2.06489,1.039804,1.11016,1.202863,1.207277,0.750116,-0.76597,-0.003029,-1.298264,-1.402337,-1.392172,-1.433249,-1.428327,-1.236006,-1.147332,-0.995015,-1.048565,-0.06159,0.650604,0.844351,1.061917,0.815365,-0.932727,-0.89239,-0.384401,-0.53275,1.232716,1.30216,1.266822,1.652205,2.122081,1.00675,1.141704,0.825121,1.272545,1.230508,1.175355,0.538524,1.115634,1.13692,1.19229,1.13293,1.126047,-0.108371,1.276135,1.133521,1.071405,1.061122,1.053574,1.238943,1.487287,0.964321,'\'(-inf-6.266667]\''
1.10543,1.100835,1.134243,1.188234,1.08472,1.296125,1.075225,1.123825,0.848143,0.996408,0.747632,1.452264,1.498312,1.544309,0.601367,1.177936,1.016285,1.289513,-0.517193,0.372173,-0.369928,1.033093,1.020302,'\'(27.8-inf)\'',-0.322097,0.504507,1.04765,0.683763,1.124953,-0.266772,1.009651,-1.202151,1.33149,0.61127,-1.457472,-1.348527,-1.566495,1.083784,0.929017,0.86599,0.970239,0.854366,0.928158,0.881967,1.078785,0.866835,-1.067624,-0.941151,-1.052783,-0.743407,-0.958921,-0.779268,-0.618768,-1.011938,-0.299126,-0.976436,1.22551,1.307497,1.78795,1.177941,-1.311986,0.085724,0.998903,1.076948,1.643499,1.992973,2.039421,1.056858,1.112253,1.217014,1.229214,0.774807,-0.776804,0.013003,-1.298264,-1.405281,-1.395388,-1.436476,-1.428327,-1.190625,-1.109456,-0.983826,-1.01077,-0.06159,0.755939,0.91337,1.077768,0.870524,-0.91093,-0.848002,-0.46479,-0.492399,1.223524,1.289367,1.259318,1.672137,2.010145,0.983676,1.141904,0.839728,1.249436,1.236475,1.168717,0.536475,1.119244,1.135883,1.189419,1.132596,1.127085,-0.113768,1.269623,1.137301,1.075085,1.069861,1.052207,1.257248,1.49711,0.979772,'\'(-inf-6.266667]\''
1.120564,1.117663,1.153268,1.193145,1.093676,1.296843,1.075587,1.128689,0.83319,0.982873,0.731546,1.487621,1.499619,1.525364,0.586195,1.174049,1.011497,1.222117,-0.517087,0.424324,-0.291443,1.044864,1.04164,'\'(27.8-inf)\'',-0.144916,0.213115,0.99548,0.619094,1.082555,-0.295997,1.017036,-1.180475,1.294154,0.622149,-1.444364,-1.33352,-1.556588,1.089764,0.939745,0.868867,0.980806,0.858572,0.932578,0.881967,0.937652,0.866835,-0.93386,-1.074563,-1.153792,-0.247715,-1.142655,-0.734382,-0.857167,-1.198947,-0.254375,-0.628628,1.189903,1.069957,1.78983,1.183037,-1.230021,0.089656,1.011321,1.095843,1.615941,1.943676,1.989499,1.063127,1.113143,1.224122,1.216522,0.73122,-0.713501,-0.065597,-1.298264,-1.405281,-1.395388,-1.433249,-1.431351,-1.261938,-1.188652,-1.054687,-1.048565,-0.074871,0.590413,0.769058,0.977378,0.815365,-0.898268,-0.842052,-0.50714,-0.396981,1.214333,1.275153,1.229302,1.560521,1.714002,0.888668,1.141352,0.838062,1.226062,1.240266,1.158263,0.540052,1.123758,1.134515,1.185434,1.131629,1.1262,-0.11758,1.257234,1.139907,1.076312,1.066584,1.059043,1.25888,1.497498,0.983103,'\'(-inf-6.266667]\''
1.137658,1.13697,1.160858,1.201347,1.1,1.320408,1.121198,1.186325,0.914641,1.088761,0.806167,1.523397,1.498907,1.531899,0.594008,1.197891,1.272699,1.232647,-0.411247,0.334391,-0.363441,1.047268,1.040884,'\'(27.8-inf)\'',-0.172386,0.328551,0.95996,0.619094,1.034101,-0.282671,1.026284,-1.160769,1.288297,0.630468,-1.433304,-1.321242,-1.547671,1.097728,0.948714,0.872105,0.987993,0.866985,0.935894,0.881967,1.078785,0.930073,-1.125326,-0.970798,-1.042682,-1.035314,-0.664946,-0.826793,-0.586982,-1.327516,-0.408516,-0.71781,1.139012,1.159648,1.791827,1.190628,-1.066092,0.091254,1.01817,1.111324,1.517091,1.775228,1.818693,1.088512,1.116795,1.238171,1.230008,0.814796,-0.792174,0.059381,-1.298264,-1.402337,-1.395388,-1.426795,-1.42228,-1.239248,-1.178322,-1.054687,-1.014206,-0.035028,0.64308,0.787881,0.977378,0.86551,-0.889133,-0.760116,-0.566549,-0.343338,1.203609,1.260939,1.20529,1.514014,1.424582,0.891382,1.136098,0.821821,1.174626,1.249643,1.133553,0.526111,1.128325,1.127441,1.173687,1.125014,1.123361,-0.134818,1.231281,1.145177,1.076312,1.073138,1.059043,1.256372,1.50416,0.989841,'\'(-inf-6.266667]\''
1.15832,1.157699,1.169154,1.220402,1.084307,1.321048,1.106581,1.169678,0.901524,1.07386,0.793264,1.489888,1.516589,1.53937,0.589825,1.191115,1.081838,1.35537,-0.421221,0.487117,-0.201181,1.04221,1.047821,'\'(27.8-inf)\'',-0.315229,0.23553,0.871714,0.397855,1.012145,-0.31587,1.034932,-1.149438,1.266335,0.643906,-1.430846,-1.319878,-1.543708,1.10563,0.957859,0.879389,0.992055,0.86979,0.939209,0.881967,1.078785,0.866835,-0.936483,-0.807738,-1.042682,-0.820514,-0.462838,-0.792469,-1.222712,-1.023626,-0.100234,-1.029945,1.096576,0.95936,1.772789,1.187932,-0.984127,0.1051,1.032254,1.141108,1.577233,1.857815,1.902481,1.115797,1.123197,1.257799,1.261057,0.822352,-0.786576,0.076599,-1.289941,-1.396449,-1.392172,-1.413886,-1.398092,-1.232765,-1.219642,-1.10317,-1.031386,0.031376,0.635556,0.693765,0.892839,0.825394,-0.880238,-0.730167,-0.59145,-0.245071,1.162247,1.206927,1.152763,1.335959,0.869945,0.87781,1.127507,0.802056,1.092415,1.261328,1.099029,0.515411,1.133276,1.115899,1.157517,1.114521,1.118142,-0.15354,1.195512,1.150046,1.076312,1.076415,1.056309,1.266615,1.532919,1.017704,'\'(-inf-6.266667]\''
1.184974,1.183605,1.176296,1.227024,1.074367,1.290596,1.092707,1.155319,0.906317,1.061885,0.804986,1.470032,1.468678,1.506307,0.538768,1.17018,1.109496,1.321471,-0.485119,0.600996,-0.163448,1.064004,1.065247,'\'(27.8-inf)\'',-0.283639,0.234409,0.917224,0.579952,0.993217,-0.301374,1.041371,-1.140078,1.207037,0.661184,-1.431256,-1.32056,-1.543708,1.111453,0.963135,0.881728,0.997055,0.877735,0.942083,0.816521,1.078785,0.803597,-0.905009,-0.926327,-1.34571,-0.605715,-0.361784,-0.853197,-0.87306,-1.36258,-0.353821,-0.71781,1.104014,1.035487,1.769769,1.186176,-0.738233,0.105059,1.046876,1.181606,1.624954,1.930305,1.976026,1.138378,1.131746,1.273232,1.285562,0.80203,-0.745138,0.054651,-1.292715,-1.393505,-1.392172,-1.423568,-1.401116,-1.320285,-1.33327,-1.226244,-1.131028,0.031376,0.439934,0.492983,0.723761,0.684988,-0.90508,-0.740797,-0.689877,0.035012,1.108629,1.133014,1.080726,1.054261,0.464219,0.799088,1.109819,0.785783,0.963414,1.260686,1.036317,0.501072,1.138871,1.095432,1.126223,1.095233,1.103917,-0.164739,1.126166,1.150991,1.082446,1.093894,1.057676,1.266954,1.499295,1.035192,'\'(-inf-6.266667]\''
1.19613,1.195429,1.183406,1.213571,1.068677,1.266329,1.064272,1.125486,0.888475,0.976154,0.813728,1.448714,1.45015,1.476652,0.529789,1.143303,1.36441,1.328435,-0.572149,0.665918,-0.063883,1.051952,1.061959,'\'(27.8-inf)\'',-0.285012,0.14363,0.828423,0.505071,0.905393,-0.237548,1.049545,-1.121358,1.11992,0.68742,-1.42716,-1.314421,-1.542717,1.11841,0.970522,0.890091,1.001799,0.882877,0.946061,0.751075,0.937652,0.740359,-1.426951,-1.830567,-1.78005,-0.765437,-0.968108,-0.647252,-1.286285,-1.11713,-0.010733,-0.592955,1.005416,0.852975,1.749123,1.194667,-0.656268,0.119315,1.06653,1.203386,1.522926,1.757947,1.801253,1.158773,1.14448,1.286324,1.288911,0.844107,-0.77068,0.105612,-1.292715,-1.396449,-1.395388,-1.426795,-1.395069,-1.28787,-1.298838,-1.170301,-1.110413,0.057938,0.515173,0.555727,0.803016,0.715075,-0.911651,-0.735746,-0.653212,0.213981,1.111693,1.134435,1.070221,0.965234,0.577164,0.789588,1.116812,0.780369,0.99451,1.259265,1.050285,0.507431,1.142134,1.103001,1.133441,1.103013,1.109137,-0.156846,1.138904,1.153683,1.076312,1.062214,1.068612,1.265202,1.493202,1.05581,'\'(-inf-6.266667]\''
1.190502,1.184758,1.19247,1.232102,1.10279,1.253386,1.068515,1.137156,0.935423,1.075934,0.841285,1.449156,1.417771,1.475964,0.545729,1.155982,1.346061,1.307583,-0.509388,0.529688,-0.13317,1.051921,1.064688,'\'(27.8-inf)\'',-0.213591,0.217598,0.715202,0.355309,0.817569,-0.318208,1.052575,-1.13663,1.003521,0.670142,-1.422654,-1.311692,-1.535782,1.122407,0.978788,0.892609,1.010576,0.888018,0.944293,0.620183,0.796519,0.677121,-1.232862,-1.000445,-1.305306,-0.704853,-1.335576,-0.792469,-0.730021,-1.210635,-0.338904,-0.735646,1.155515,1.067947,1.745486,1.199449,-0.738233,0.114399,1.06621,1.194909,1.632753,1.918754,1.964307,1.190176,1.163874,1.301731,1.345189,0.842385,-0.749603,0.089313,-1.292715,-1.399393,-1.392172,-1.413886,-1.385999,-1.271663,-1.278178,-1.159113,-1.100105,0.09778,0.552793,0.593374,0.818867,0.730118,-0.876631,-0.719558,-0.725953,0.270472,1.122417,1.145807,1.067219,0.939987,0.484388,0.716295,1.124263,0.801704,1.022781,1.269733,1.063037,0.511436,1.14679,1.112433,1.140945,1.110198,1.114723,-0.160658,1.153961,1.157607,1.094714,1.10591,1.075448,1.279112,1.498426,1.065171,'\'(-inf-6.266667]\''
1.199653,1.193859,1.19801,1.258235,1.107091,1.232609,1.044587,1.098308,0.899008,1.105131,0.777211,1.427514,1.401607,1.465202,0.560421,1.155283,1.011405,1.328341,-0.498703,0.736161,-0.008317,1.064941,1.077281,'\'(27.8-inf)\'',0.16,0.263548,0.639722,0.093227,0.831197,-0.308856,1.061192,-1.113476,0.891514,0.707257,-1.420606,-1.313057,-1.528847,1.129522,0.981602,0.888742,1.014127,0.890355,0.952029,0.620183,0.796519,0.677121,-0.629612,0.363327,-1.062884,-0.682822,-0.325037,-0.54428,0.350721,-1.280763,-0.164874,-0.7624,1.103042,1.035525,1.735306,1.207713,-0.738233,0.114706,1.071915,1.200266,1.649392,1.940401,1.986362,1.208055,1.169459,1.31486,1.361007,0.853968,-0.748839,0.104668,-1.289941,-1.402337,-1.395388,-1.42034,-1.392046,-1.326768,-1.312611,-1.203867,-1.120721,0.057938,0.417362,0.524355,0.750179,0.695017,-0.892899,-0.728323,-0.723993,0.137076,1.102502,1.120222,1.046208,0.955932,0.707251,0.720367,1.127154,0.794144,1.016061,1.286095,1.058933,0.516358,1.153162,1.115922,1.141617,1.111833,1.117348,-0.155227,1.145607,1.162733,1.098395,1.114649,1.079549,1.290792,1.50643,1.076003,'\'(-inf-6.266667]\''
1.20609,1.200728,1.207138,1.223442,1.124832,1.215658,1.037845,1.091187,0.892239,1.18021,0.737497,1.435063,1.372976,1.465789,0.554394,1.15601,0.950005,1.243622,-0.484124,0.717536,-0.081148,1.083394,1.087341,'\'(27.8-inf)\'',-0.176506,0.44847,0.699662,0.374029,0.788042,-0.364967,1.071986,-1.099189,0.736314,0.729654,-1.414461,-1.306235,-1.523893,1.139374,0.993033,0.894318,1.024126,0.895496,0.953577,0.554737,0.796519,0.677121,-0.920746,-0.348206,-1.295205,-0.715868,-0.637386,-0.264407,1.844687,-0.953497,-0.239459,-0.771318,1.017071,0.735383,1.713917,1.214722,-0.738233,0.109708,1.076525,1.197264,1.585841,1.835804,1.88015,1.226856,1.174997,1.328677,1.373818,0.867271,-0.749889,0.119212,-1.289941,-1.396449,-1.395388,-1.423568,-1.389022,-1.26518,-1.223085,-1.03231,-0.979846,0.071218,0.560317,0.68749,0.993229,0.900611,-0.915257,-0.715562,-0.628311,0.060647,1.136204,1.164285,1.064218,1.035658,0.869273,0.769229,1.13631,0.776237,1.066718,1.291329,1.079606,0.515991,1.15638,1.126109,1.153131,1.121359,1.12446,-0.157757,1.167875,1.166657,1.104529,1.119019,1.086385,1.305058,1.516555,1.093455,'\'(-inf-6.266667]\''
1.207364,1.202617,1.209284,1.229213,1.125282,1.204233,1.030699,1.08177,0.887761,1.089032,0.767359,1.417296,1.356772,1.445561,0.538262,1.142859,1.004975,1.240957,-0.524465,0.54991,-0.06185,1.065003,1.087309,'\'(27.8-inf)\'',-0.399013,0.320706,0.589216,0.61569,0.52987,-0.366136,1.077383,-1.094755,0.698978,0.738613,-1.414052,-1.306917,-1.521912,1.144474,0.99954,0.895037,1.027109,0.903909,0.95424,0.620183,0.937652,0.677121,-0.59027,0.733917,-1.285104,-0.501069,-0.517958,0.018107,1.749327,-0.836617,0.068823,-0.405674,1.1416,1.040704,1.712602,1.229464,-0.738233,0.117184,1.083357,1.199147,1.568625,1.807972,1.851913,1.247695,1.186191,1.347798,1.423775,0.857418,-0.726554,0.107823,-1.287166,-1.387618,-1.395388,-1.42034,-1.376928,-1.219799,-1.167992,-0.953991,-0.897383,0.111061,0.658128,0.781607,1.098903,1.015945,-0.914857,-0.686636,-0.604783,0.150369,1.153055,1.184184,1.074723,1.050275,0.887761,0.682364,1.14402,0.765954,1.088742,1.288982,1.089047,0.514768,1.16328,1.13376,1.161178,1.130006,1.130229,-0.163356,1.176897,1.172699,1.113117,1.123388,1.094587,1.320728,1.529037,1.096903,'\'(-inf-6.266667]\''
1.212422,1.208137,1.22059,1.238427,1.146137,1.227568,1.057515,1.117759,0.951213,1.254786,0.792565,1.409972,1.375119,1.485261,0.543122,1.169133,0.995474,1.322659,-0.416616,0.979883,0.244393,1.062974,1.087769,'\'(27.8-inf)\'',-0.035036,0.125698,0.49431,0.382539,0.503371,-0.347433,1.086284,-1.076528,0.616254,0.758451,-1.407498,-1.304871,-1.509032,1.152186,1.006223,0.893598,1.03137,0.912789,0.961976,0.620183,0.796519,0.677121,-0.745017,-0.214794,-1.02248,-0.506576,-0.701693,-0.612928,-0.841274,-0.953497,-0.120124,-0.655382,1.134561,0.927827,1.70789,1.23083,-0.738233,0.121342,1.090693,1.20521,1.592659,1.842716,1.887071,1.259536,1.192976,1.359735,1.445563,0.853407,-0.711506,0.118213,-1.287166,-1.384674,-1.392172,-1.410659,-1.370881,-1.236006,-1.181765,-0.968909,-0.873331,0.137622,0.620508,0.756509,1.077768,1.051046,-0.896746,-0.690674,-0.60792,0.386778,1.149991,1.17992,1.06872,0.96922,0.58792,0.594141,1.148451,0.771688,1.092999,1.292522,1.089267,0.509174,1.169599,1.138512,1.162704,1.134528,1.132946,-0.173443,1.179184,1.176995,1.11189,1.114649,1.100056,1.332268,1.54025,1.089982,'\'(-inf-6.266667]\''
1.218554,1.214711,1.228116,1.242628,1.145651,1.221173,1.061758,1.11805,0.953125,1.170132,0.82903,1.400555,1.355479,1.450212,0.523501,1.157672,1.03624,1.359855,-0.455446,0.66645,0.077067,1.068438,1.099309,'\'(27.8-inf)\'',-0.723158,0.245617,0.530386,0.419979,0.537441,-0.359356,1.090513,-1.076528,0.517424,0.769969,-1.409546,-1.305553,-1.512995,1.156404,1.009741,0.894588,1.033188,0.917931,0.964186,0.685629,0.796519,0.677121,-0.786982,-0.837385,-1.2346,-0.115531,-0.922174,-0.54692,-0.888953,-0.965185,-0.055484,-0.512692,1.064144,0.888411,1.691916,1.234758,-0.574303,0.117082,1.098181,1.216218,1.605831,1.857997,1.902481,1.276757,1.20197,1.371683,1.471497,0.811136,-0.653635,0.079311,-1.284392,-1.364067,-1.379308,-1.378387,-1.346693,-1.26518,-1.233415,-1.009933,-0.876767,0.230588,0.545269,0.656118,1.014364,1.041017,-0.885687,-0.693716,-0.604391,0.521598,1.139268,1.165706,1.04921,0.888165,0.317997,0.503205,1.148439,0.786968,1.071337,1.290584,1.080873,0.503518,1.173621,1.137404,1.159664,1.134689,1.133159,-0.18562,1.16994,1.181291,1.118024,1.119019,1.104157,1.348644,1.547668,1.099371,'\'(-inf-6.266667]\''
1.226807,1.223371,1.22991,1.275599,1.135294,1.21068,1.043825,1.095907,0.938193,1.155454,0.813402,1.370486,1.354887,1.43581,0.555756,1.14802,1.022181,1.452647,-0.489778,0.677625,0.106215,1.054731,1.087637,'\'(14.9-27.8]\'',-0.32347,0.183976,0.462675,0.336589,0.480658,-0.386009,1.095247,-1.070616,0.425183,0.781488,-1.406269,-1.306917,-1.503088,1.160748,1.00763,0.885595,1.030518,0.921202,0.959765,0.620183,0.655386,0.677121,-0.540436,-0.585384,-1.355811,0.055208,-0.389344,-0.602367,-0.857167,-0.918433,-0.130068,-0.61971,1.010371,0.668028,1.663629,1.239395,-0.574303,0.121936,1.108462,1.238115,1.63154,1.890013,1.934963,1.291325,1.211721,1.391537,1.532505,0.73756,-0.552798,-0.004601,-1.284392,-1.361123,-1.395388,-1.391296,-1.349717,-1.281387,-1.233415,-0.998744,-0.825228,0.217307,0.507649,0.656118,1.030215,1.116235,-0.882481,-0.722003,-0.651447,0.578089,1.102502,1.115957,1.01019,0.836344,0.40573,0.534422,1.142151,0.782003,0.995553,1.296472,1.050977,0.5063,1.179457,1.128714,1.145757,1.127269,1.129039,-0.181674,1.133663,1.185129,1.114344,1.088432,1.116461,1.380464,1.572619,1.093681,'\'(-inf-6.266667]\''
1.23429,1.231957,1.232024,1.268419,1.129159,1.193037,1.032685,1.074703,0.91985,1.1533,0.787852,1.346303,1.329521,1.434895,0.551843,1.143349,0.97603,1.442078,-0.507361,0.829286,0.207146,1.068282,1.101446,'\'(14.9-27.8]\'',-0.312482,0.187338,0.468225,0.299149,0.505642,-0.397699,1.104842,-1.052388,0.351243,0.806444,-1.402992,-1.308964,-1.49219,1.169153,1.014841,0.886584,1.041739,0.928213,0.963302,0.685629,0.796519,0.677121,-0.975825,-0.555737,-1.032581,-0.68833,-0.986481,-0.560122,-0.698234,-0.976873,0.014128,-0.780237,1.113127,1.051021,1.664357,1.24311,-0.492339,0.117819,1.117095,1.247827,1.650027,1.912387,1.957756,1.309695,1.221609,1.404365,1.558271,0.835523,-0.616274,0.123788,-1.289941,-1.367011,-1.395388,-1.413886,-1.382975,-1.313802,-1.267848,-1.043498,-0.825228,0.09778,0.447458,0.605923,0.977378,1.126264,-0.885527,-0.722989,-0.650467,0.485994,1.094842,1.107429,0.998184,0.803124,0.430605,0.541208,1.144913,0.759964,0.985578,1.313709,1.04559,0.501622,1.186357,1.131426,1.146495,1.128681,1.129039,-0.191288,1.128961,1.187621,1.131519,1.135405,1.115094,1.37763,1.574789,1.100676,'\'(-inf-6.266667]\''
1.233803,1.22997,1.237116,1.261677,1.137572,1.166401,1.017115,1.05161,0.907621,1.124047,0.781986,1.304358,1.289559,1.41331,0.563316,1.134742,0.805225,1.4483,-0.542155,0.794697,0.162797,1.077524,1.108581,'\'(27.8-inf)\'',-0.298747,0.208632,0.471,0.402961,0.463244,-0.390685,1.11207,-1.037116,0.246557,0.83908,-1.40504,-1.318514,-1.483273,1.175385,1.019062,0.888652,1.0435,0.935224,0.968828,0.620183,0.655386,0.677121,-0.676823,-0.644679,-1.072985,-0.198146,-0.664946,-0.338335,-0.761807,-0.602855,0.093685,-0.42351,1.087382,0.844512,1.658341,1.238754,-0.492339,0.129433,1.132474,1.266781,1.618945,1.852721,1.897314,1.329353,1.241534,1.415181,1.593275,0.842876,-0.653667,0.230536,-1.289941,-1.352292,-1.363227,-1.346115,-1.316459,-1.22304,-1.202425,-1.002474,-0.783996,0.389958,0.658128,0.725137,1.035499,1.186438,-0.85259,-0.697287,-0.679681,0.58426,1.097906,1.111693,0.986177,0.690179,0.303542,0.425841,1.148251,0.772809,0.988346,1.322484,1.042228,0.49459,1.192818,1.135741,1.148099,1.131518,1.130901,-0.202588,1.127659,1.191859,1.132746,1.143051,1.113727,1.365541,1.56975,1.116311,'\'(-inf-6.266667]\''
1.246988,1.242359,1.246821,1.256799,1.147219,1.148285,0.995657,1.02457,0.880771,1.127244,0.741988,1.275001,1.27629,1.407153,0.564967,1.125406,0.706441,1.392236,-0.581608,0.867601,0.237687,1.095383,1.130445,'\'(27.8-inf)\'',-0.275398,0.090955,0.47766,0.333185,0.503371,-0.378995,1.12056,-1.023815,0.18067,0.859557,-1.403402,-1.323288,-1.472375,1.183003,1.025041,0.886224,1.045006,0.938496,0.972364,0.685629,0.655386,0.677121,-0.745017,-0.214794,-1.103287,-0.313807,-0.949734,-0.425466,0.016962,-0.988562,0.073796,-0.824827,1.008333,0.47999,1.649516,1.233927,-0.328409,0.135926,1.144455,1.287736,1.520211,1.689822,1.732045,1.338041,1.254922,1.331558,1.262891,0.822204,-0.617645,0.242187,-1.256647,-1.28164,-1.327851,-1.291252,-1.26506,-1.213316,-1.209312,-1.036039,-0.783996,0.456362,0.590413,0.637295,0.924541,1.126264,-0.864371,-0.707272,-0.721444,0.790288,1.077991,1.084687,0.954661,0.594508,0.127067,0.402767,1.145242,0.782996,0.961689,1.325365,1.026909,0.487681,1.196501,1.132829,1.140117,1.127962,1.128398,-0.210516,1.108408,1.194752,1.140107,1.145236,1.121929,1.104482,1.107908,1.13389,'\'(-inf-6.266667]\''
1.251092,1.246456,1.251977,1.259111,1.133198,1.166494,1.019277,1.052905,0.93886,1.166706,0.809794,1.274871,1.286937,1.409652,0.591716,1.138696,0.924521,1.456296,-0.536253,0.956469,0.380471,1.103033,1.147706,'\'(27.8-inf)\'',-0.595422,0.201908,0.39885,0.169809,0.468544,-0.338782,1.124758,-1.019874,0.073055,0.860197,-1.394799,-1.315103,-1.463458,1.186938,1.026097,0.889641,1.054664,0.946909,0.976122,0.751075,0.796519,0.740359,-0.886649,-0.407501,-1.275003,-0.47353,-0.903801,-0.531078,-1.333965,-0.684672,-0.115151,-0.316493,1.141998,1.110339,1.659808,1.232706,-0.328409,0.13611,1.167558,1.323113,1.495311,1.652349,1.694027,1.351575,1.266134,1.344487,1.295024,0.716677,-0.479257,0.103825,-1.228903,-1.272808,-1.318203,-1.310615,-1.298318,-1.271663,-1.260961,-1.024851,-0.787432,0.177465,0.379742,0.480434,0.887555,1.071104,-0.853873,-0.741037,-0.836928,1.025273,1.070331,1.074737,0.924646,0.581221,-0.058148,0.381051,1.143961,0.749585,0.93275,1.333674,1.010712,0.478295,1.203007,1.131037,1.133351,1.125745,1.129619,-0.212034,1.089825,1.201682,1.141334,1.143051,1.128765,1.095302,1.104104,1.138862,'\'(-inf-6.266667]\''
1.252812,1.244787,1.272539,1.286174,1.152278,1.1474,1.00381,1.034593,0.930536,1.153772,0.803021,1.259948,1.263721,1.400845,0.583265,1.126358,0.950639,1.671328,-0.590035,0.82769,0.266626,1.114274,1.15711,'\'(27.8-inf)\'',-0.500651,0.086472,0.45213,0.215759,0.520784,-0.398868,1.130976,-1.034653,-0.088001,0.865956,-1.401763,-1.323971,-1.467421,1.194084,1.037177,0.885774,1.068953,0.948311,0.981427,0.554737,0.796519,0.677121,-0.537813,-1.296917,-0.648745,-0.099008,-0.325037,-0.528438,-0.730021,-0.930121,-0.130068,-0.432429,0.99922,0.762008,1.642834,1.226091,-0.328409,0.14334,1.179707,1.345128,1.541414,1.716836,1.759451,1.380326,1.281004,1.358087,1.343703,0.70455,-0.456895,0.118918,-1.217805,-1.28164,-1.302123,-1.307388,-1.301341,-1.368908,-1.367703,-1.039769,-0.825228,0.111061,0.123929,0.260828,0.845286,0.995887,-0.866855,-0.776794,-0.856927,0.830164,1.048884,1.044888,0.903635,0.540029,-0.103864,0.469273,1.140247,0.778383,0.878991,1.349177,0.989177,0.479151,1.208611,1.126274,1.123661,1.120108,1.128062,-0.216284,1.066413,1.206494,1.140107,1.13322,1.134233,1.079026,1.090985,1.145512,'\'(-inf-6.266667]\''
1.252617,1.24437,1.260977,1.287541,1.145688,1.119284,0.975851,1.003323,0.891798,1.140341,0.752553,1.241964,1.23623,1.388015,0.603,1.123234,0.613348,1.705793,-0.609539,1.01873,0.326967,1.131103,1.166283,'\'(27.8-inf)\'',-0.247928,0.065178,0.48876,0.190231,0.58211,-0.415234,1.139024,-1.037116,-0.228559,0.890273,-1.411594,-1.338977,-1.469403,1.202268,1.050543,0.889821,1.084349,0.955789,0.990268,0.489291,0.796519,0.677121,-0.836815,-0.244441,-1.13359,-0.583684,-0.775187,-0.671015,-1.159139,-0.848305,-0.105207,-0.780237,1.017914,0.637113,1.636265,1.234981,-0.328409,0.146474,1.188255,1.347953,1.556377,1.72484,1.767664,1.417873,1.295651,1.372908,1.377824,0.797177,-0.566915,0.293658,-1.223354,-1.278696,-1.308555,-1.300934,-1.262036,-1.317044,-1.329827,-1.091982,-0.897383,0.310273,0.25936,0.342396,0.781881,0.900611,-0.87559,-0.79347,-0.864966,0.5591,1.055012,1.054837,0.911139,0.570591,0.139168,0.537136,1.148991,0.776621,0.917933,1.353729,1.002824,0.47539,1.214742,1.137462,1.134024,1.129276,1.135021,-0.227214,1.083059,1.212737,1.159736,1.171454,1.143803,1.074976,1.092726,1.154553,'\'(-inf-6.266667]\''
1.247814,1.23863,1.269176,1.284405,1.158219,1.130905,0.995323,1.025938,0.938457,1.185178,0.801694,1.238947,1.23728,1.391909,0.561224,1.118623,1.010178,1.596958,-0.63523,0.845251,0.179832,1.129916,1.161548,'\'(27.8-inf)\'',-0.007566,0.024831,0.47655,0.294043,0.518513,-0.402375,1.145115,-1.025786,-0.316408,0.905631,-1.406678,-1.335567,-1.462468,1.207619,1.053708,0.893778,1.083753,0.966539,0.991594,0.554737,0.796519,0.677121,-0.700429,-0.748444,-0.668947,-0.231192,-0.995668,-0.560122,-0.952527,-0.81324,-0.085318,-0.584037,1.152013,1.095732,1.651759,1.242877,-0.328409,0.155138,1.201548,1.355488,1.541645,1.695097,1.737397,1.437406,1.305391,1.386831,1.413085,0.838919,-0.607919,0.383983,-1.220579,-1.278696,-1.327851,-1.329979,-1.292271,-1.355942,-1.357374,-1.166572,-1.014206,0.164184,0.161548,0.285926,0.670924,0.725104,-0.889774,-0.826944,-0.851241,0.365415,1.064203,1.064787,0.923145,0.626399,0.246734,0.526278,1.15971,0.774667,0.958392,1.362379,1.019207,0.469337,1.222294,1.149488,1.146844,1.140202,1.144789,-0.214665,1.100689,1.219668,1.170778,1.173638,1.160208,1.068945,1.092329,1.169661,'\'(-inf-6.266667]\''
1.246331,1.236201,1.274268,1.265269,1.164678,1.122666,0.985166,1.013723,0.920951,1.13521,0.796834,1.232436,1.231702,1.397996,0.570234,1.116135,0.965446,1.62624,-0.652707,0.831415,0.283544,1.11877,1.163455,'\'(14.9-27.8]\'',-0.46082,0.172769,0.290624,0.101736,0.350436,-0.362629,1.146536,-1.048447,-0.397668,0.897312,-1.41569,-1.35262,-1.459496,1.210484,1.056698,0.89162,1.085372,0.974017,0.99491,0.554737,0.655386,0.740359,-0.739771,-1.282094,-0.830562,-0.253223,-0.619012,-0.441308,-1.031993,-0.918433,-0.035595,-0.147048,1.073303,1.047737,1.655573,1.250896,-0.328409,0.162655,1.212822,1.364612,1.520615,1.655805,1.697533,1.455136,1.320362,1.400309,1.451475,0.831138,-0.59069,0.39058,-1.220579,-1.272808,-1.314987,-1.31707,-1.2832,-1.342976,-1.357374,-1.155383,-1.052001,0.204027,0.191644,0.285926,0.686775,0.669944,-0.878314,-0.833914,-0.811047,0.425705,1.074927,1.079001,0.939653,0.70081,0.447076,0.538494,1.16635,0.804299,0.972068,1.369438,1.0224,0.461816,1.23074,1.157871,1.152044,1.146805,1.149673,-0.226067,1.10053,1.227773,1.178139,1.191117,1.164309,1.067668,1.093865,1.185394,'\'(-inf-6.266667]\''
1.249604,1.241034,1.288072,1.28559,1.189485,1.140305,1.002388,1.035591,0.960628,1.207937,0.824439,1.233875,1.249257,1.412756,0.544389,1.12431,1.102811,1.73369,-0.628883,0.81279,0.244265,1.124484,1.166447,'\'(27.8-inf)\'',-0.279518,0.095438,0.335579,0.137474,0.396619,-0.405882,1.1543,-1.038594,-0.470875,0.904991,-1.408317,-1.354666,-1.43869,1.217598,1.059864,0.887303,1.090229,0.981496,0.99071,0.620183,0.796519,0.677121,-0.595516,-0.792915,-0.830562,-0.286269,-0.361784,-0.433387,-0.841274,-0.953497,0.093685,-0.432429,0.883475,0.525975,1.620965,1.250747,-0.492339,0.163823,1.222986,1.370675,1.51426,1.64098,1.6824,1.458699,1.332748,1.41188,1.469003,0.845423,-0.599101,0.432585,-1.217805,-1.278696,-1.314987,-1.320297,-1.295294,-1.385115,-1.41591,-1.211326,-1.103541,0.137622,0.086309,0.172986,0.602236,0.589712,-0.884886,-0.86855,-0.875162,0.401494,1.094842,1.101743,0.959163,0.757946,0.515985,0.558853,1.174166,0.790492,0.996583,1.378548,1.030338,0.449495,1.23848,1.167232,1.159237,1.154486,1.154923,-0.247049,1.114825,1.233615,1.192861,1.21078,1.172512,1.069523,1.093375,1.198174,'\'(-inf-6.266667]\''
1.262899,1.256195,1.293773,1.282866,1.187143,1.144513,1.005459,1.03152,0.952746,1.213826,0.810653,1.235053,1.254737,1.416084,0.548529,1.126077,1.135592,1.748825,-0.628332,0.929862,0.35721,1.131571,1.17733,'\'(14.9-27.8]\'',-0.544603,0.192942,0.369989,0.316167,0.364064,-0.433236,1.166104,-1.013962,-0.502354,0.926748,-1.399715,-1.345798,-1.430764,1.227797,1.067954,0.89126,1.094547,0.992246,1.014803,0.685629,0.796519,0.803597,-0.501094,-0.540913,-1.163893,0.000131,-0.361784,-0.45979,-0.96842,-0.708048,0.098657,-0.646464,0.991759,0.758105,1.609627,1.25301,-0.410374,0.163741,1.232123,1.385567,1.48364,1.589772,1.630447,1.467651,1.345685,1.424178,1.475104,0.89606,-0.647989,0.547093,-1.215031,-1.258089,-1.305339,-1.323524,-1.307388,-1.41753,-1.464116,-1.293374,-1.210056,0.071218,0.003546,0.07887,0.480711,0.429248,-0.874067,-0.880038,-1.083583,0.476499,1.094842,1.104586,0.966667,0.765919,0.37783,0.621287,1.172744,0.777839,0.96066,1.391897,1.012131,0.443655,1.245362,1.16564,1.153506,1.151599,1.155442,-0.258417,1.096147,1.240918,1.195315,1.212965,1.175246,1.06962,1.092877,1.221081,'\'(-inf-6.266667]\''
1.266384,1.258721,1.297136,1.308868,1.187964,1.14072,1.004132,1.035159,0.95977,1.197147,0.827702,1.227946,1.247804,1.400131,0.536515,1.112838,1.232057,1.791001,-0.683305,0.7782,0.208856,1.143061,1.184728,'\'(14.9-27.8]\'',-0.431976,0.271394,0.313379,0.098332,0.384506,-0.414065,1.170586,-1.027263,-0.537494,0.927388,-1.409136,-1.360123,-1.432746,1.233117,1.076044,0.893598,1.099405,0.999724,1.013698,0.554737,0.796519,0.677121,-0.679446,-0.52609,-1.042682,-0.390915,-0.453651,-0.451869,-0.730021,-0.778176,-0.005761,-0.512692,1.008497,0.712081,1.602233,1.253439,-0.410374,0.177812,1.246291,1.400342,1.509176,1.628246,1.669481,1.459642,1.35885,1.440514,1.511673,0.918321,-0.65883,0.592002,-1.212256,-1.225707,-1.305339,-1.307388,-1.289247,-1.398081,-1.443456,-1.278456,-1.203184,0.137622,0.041165,0.110242,0.496562,0.434262,-0.883603,-0.909282,-1.090053,0.450865,1.08565,1.093215,0.965167,0.735357,0.380183,0.615858,1.177962,0.786392,0.954413,1.417932,1.01137,0.43803,1.253004,1.171523,1.15731,1.154733,1.159624,-0.266547,1.099133,1.246847,1.198995,1.215149,1.183448,1.107946,1.109372,1.234038,'\'(-inf-6.266667]\''
1.273786,1.268632,1.305495,1.313741,1.204216,1.137482,1.001113,1.027922,0.951314,1.212002,0.809463,1.216288,1.244339,1.393411,0.580684,1.120011,1.105741,1.826548,-0.658485,0.87984,0.23366,1.147807,1.184136,'\'(14.9-27.8]\'',0.000675,0.199666,0.343349,0.251497,0.356493,-0.470176,1.180212,-1.01347,-0.549939,0.947866,-1.409955,-1.363534,-1.429773,1.241836,1.078154,0.902951,1.101422,1.002996,1.022318,0.620183,0.796519,0.740359,-0.949597,-1.119034,-1.224499,-0.550638,-0.600639,-0.182557,-0.300903,-0.836617,0.158324,-0.093539,1.006295,0.724293,1.590309,1.257017,-0.492339,0.179614,1.256438,1.406758,1.462495,1.547842,1.587907,1.482971,1.370104,1.456214,1.530775,0.902906,-0.639961,0.580016,-1.212256,-1.219819,-1.308555,-1.300934,-1.2832,-1.381874,-1.419353,-1.244891,-1.179132,0.164184,0.078785,0.154163,0.544115,0.469364,-0.88192,-0.903874,-1.082406,0.503084,1.097906,1.10885,0.975672,0.72207,0.395646,0.596856,1.185379,0.778896,0.976075,1.422455,1.022805,0.433047,1.258366,1.180059,1.163687,1.162439,1.165332,-0.269482,1.113745,1.250999,1.203902,1.222796,1.183448,1.133082,1.118145,1.255648,'\'(-inf-6.266667]\''
1.279192,1.272803,1.304054,1.317974,1.208349,1.140017,0.994913,1.022829,0.929228,1.233142,0.768998,1.231149,1.25807,1.410063,0.583318,1.124888,0.909467,1.763279,-0.639995,0.732436,0.169451,1.144404,1.185188,'\'(14.9-27.8]\'',-0.227326,0.182855,0.353894,0.261708,0.366335,-0.45007,1.183337,-0.999183,-0.558724,0.967703,-1.410365,-1.363534,-1.430764,1.24404,1.082375,0.907628,1.101819,1.0058,1.016129,0.685629,0.937652,0.803597,-0.307005,-0.140676,-0.81036,-0.121038,-0.049436,-0.311932,-0.809487,-0.708048,0.004184,-0.066784,1.19446,1.327978,1.623023,1.259669,-0.492339,0.182154,1.268772,1.417176,1.367863,1.39413,1.431959,1.502676,1.382858,1.469339,1.544687,0.89148,-0.618276,0.564536,-1.212256,-1.228651,-1.295691,-1.297707,-1.262036,-1.3527,-1.37459,-1.207596,-1.15508,0.25715,0.1465,0.235731,0.596952,0.504465,-0.870381,-0.882846,-1.241222,0.570968,1.114757,1.130171,0.983176,0.698152,0.550272,0.633502,1.192019,0.79834,0.9954,1.422075,1.032753,0.427727,1.263497,1.187664,1.168836,1.169773,1.171498,-0.276971,1.127564,1.256584,1.210036,1.230443,1.18755,1.128488,1.113126,1.27161,'\'(-inf-6.266667]\''
1.287587,1.284701,1.309339,1.319305,1.208585,1.125975,0.978665,0.999641,0.884136,1.177233,0.726668,1.23278,1.247296,1.398904,0.610376,1.122524,0.72419,1.785197,-0.646395,0.934651,0.387154,1.141313,1.190481,'\'(14.9-27.8]\'',-0.26853,0.059574,0.263428,0.122158,0.30501,-0.497063,1.18703,-0.988345,-0.534565,0.983061,-1.412413,-1.368308,-1.428783,1.24703,1.077802,0.908887,1.089036,1.010941,1.012151,0.685629,0.796519,0.740359,-0.760754,-1.296917,-0.598241,-0.352361,-0.729253,-0.3753,-0.87306,-0.836617,0.0191,-0.173802,0.994078,0.593601,1.614986,1.276156,-0.410374,0.185247,1.281139,1.431304,1.401198,1.435605,1.474129,1.506436,1.389845,1.480656,1.55862,0.908593,-0.628029,0.598284,-1.209482,-1.231594,-1.257098,-1.265435,-1.237848,-1.245731,-1.243745,-1.077064,-1.041693,0.350116,0.387266,0.467885,0.776598,0.664929,-0.863409,-0.837926,-1.221223,0.657841,1.108629,1.120222,0.986177,0.708782,0.411781,0.709509,1.195369,0.801031,0.997904,1.423012,1.028396,0.420359,1.270209,1.191684,1.169729,1.173378,1.172505,-0.30136,1.124355,1.261997,1.21249,1.231535,1.18755,1.124079,1.1105,1.268482,'\'(-inf-6.266667]\''
1.296849,1.296599,1.331438,1.361294,1.236871,1.151745,1.013015,1.050779,0.948616,1.190139,0.814507,1.267476,1.261124,1.397508,0.561285,1.124182,1.184665,1.782086,-0.634785,0.930926,0.394239,1.146683,1.197156,'\'(14.9-27.8]\'',-0.337205,0.00802,0.334469,0.348502,0.301224,-0.466903,1.194131,-0.984404,-0.537494,0.979861,-1.407088,-1.362851,-1.423829,1.253861,1.08853,0.90529,1.098354,1.023093,1.018119,0.554737,0.655386,0.740359,-0.466997,-1.178328,-0.527534,-0.484545,0.38234,-0.327774,-0.841274,-0.871681,0.088712,-0.129211,1.031231,0.691948,1.608177,1.281676,-0.656268,0.184899,1.288728,1.434188,1.344464,1.338829,1.375946,1.499832,1.392989,1.492204,1.559058,0.972183,-0.686298,0.698111,-1.173414,-1.184493,-1.237802,-1.246071,-1.198543,-1.129037,-1.123229,-1.002474,-1.000462,0.350116,0.560317,0.605923,0.813583,0.659915,-0.844897,-0.7631,-1.211224,0.612743,1.134672,1.152914,1.002686,0.87222,0.623888,0.682364,1.20255,0.787577,1.023156,1.426564,1.036638,0.416384,1.276894,1.20002,1.176572,1.180922,1.177694,-0.310434,1.134044,1.267581,1.214944,1.232628,1.193018,1.119624,1.109305,1.264762,'\'(-inf-6.266667]\''
1.30636,1.306902,1.333327,1.370991,1.263559,1.143425,0.992967,1.023017,0.894462,1.19813,0.73328,1.270003,1.268231,1.424681,0.581034,1.130393,0.842904,1.744011,-0.603067,0.746272,0.275321,1.144872,1.196991,'\'(14.9-27.8]\'',-0.241061,-0.085001,0.313379,0.273621,0.305767,-0.505246,1.201075,-0.968639,-0.527245,0.993939,-1.402992,-1.358077,-1.420857,1.259779,1.096269,0.910146,1.113693,1.035713,1.020771,0.554737,0.514253,0.740359,-0.629612,-0.748444,-0.81036,0.055208,-1.096722,-0.182557,-0.380369,-0.684672,0.352244,-0.512692,1.028326,0.812438,1.599279,1.287305,-0.656268,0.195898,1.301281,1.439309,1.381382,1.396312,1.434358,1.498148,1.40359,1.504685,1.543757,0.994374,-0.699911,0.700992,-1.142895,-1.175662,-1.237802,-1.252526,-1.210637,-1.142003,-1.143889,-1.054687,-1.058873,0.150903,0.447458,0.499257,0.681491,0.519509,-0.854434,-0.774252,-1.233968,0.538687,1.159183,1.184184,1.035703,0.959919,0.641703,0.708152,1.214079,0.78306,1.064005,1.431935,1.057159,0.426443,1.284437,1.212753,1.19079,1.193062,1.189293,-0.294343,1.15628,1.275257,1.222305,1.247921,1.193018,1.115719,1.102992,1.271817,'\'(-inf-6.266667]\''
1.315737,1.318653,1.335025,1.365417,1.26289,1.129354,0.966089,0.987231,0.832353,1.182493,0.650201,1.269632,1.271177,1.417255,0.592598,1.126489,0.452703,1.741802,-0.607174,0.909108,0.422493,1.152335,1.207775,'\'(14.9-27.8]\'',-0.121566,0.021469,0.186838,-0.007182,0.258069,-0.56954,1.208019,-0.936125,-0.469411,1.020176,-1.396438,-1.360123,-1.402033,1.264627,1.095741,0.912304,1.107671,1.037115,1.022981,0.620183,0.655386,0.740359,-0.417164,-0.837385,-0.941672,0.011146,-0.104556,-0.364739,-1.000206,-0.182085,0.078768,-0.673219,1.054528,0.896178,1.596984,1.291347,-0.656268,0.19811,1.312488,1.450258,1.468562,1.52765,1.567606,1.498229,1.408814,1.514648,1.541259,1.03705,-0.733036,0.741941,-1.14012,-1.184493,-1.234586,-1.242844,-1.213661,-1.148486,-1.147332,-1.043498,-1.065745,0.124342,0.424886,0.486708,0.692058,0.504465,-0.859642,-0.793669,-1.208871,0.503558,1.168375,1.194134,1.055213,0.953275,0.674309,0.781444,1.21864,0.783509,1.056826,1.44134,1.055284,0.423814,1.292213,1.21682,1.19392,1.19715,1.193414,-0.295322,1.154819,1.281443,1.221078,1.240274,1.194385,1.102102,1.089223,1.286861,'\'(-inf-6.266667]\''
1.327432,1.331802,1.349085,1.358104,1.259702,1.152064,0.982883,1.009457,0.8556,1.132635,0.70362,1.290515,1.300835,1.407614,0.589279,1.113959,0.869946,1.778855,-0.641808,0.849508,0.477506,1.161015,1.227009,'\'(14.9-27.8]\'',-0.37429,-0.043534,0.113022,-0.020796,0.162674,-0.553175,1.211838,-0.91839,-0.4372,1.033614,-1.391932,-1.35603,-1.397079,1.267302,1.093455,0.914732,1.099348,1.040387,1.023644,0.489291,0.655386,0.677121,-0.629612,-0.792915,-1.325508,-0.043931,-0.435278,-0.264407,-0.602875,-0.836617,0.208047,-0.289738,1.071277,0.93598,1.594338,1.296384,-0.656268,0.207511,1.322819,1.466563,1.532054,1.604871,1.64595,1.476126,1.413633,1.524583,1.548411,1.049552,-0.751743,0.760925,-1.104052,-1.152111,-1.163833,-1.168619,-1.156215,-1.112829,-1.126673,-1.021121,-1.052001,0.204027,0.409838,0.442787,0.655073,0.459335,-0.859242,-0.793621,-1.237889,0.63553,1.166843,1.191291,1.055213,0.866905,0.535146,0.761085,1.2173,0.794368,1.051247,1.444443,1.053359,0.412287,1.291123,1.214333,1.189496,1.195354,1.191857,-0.307128,1.154946,1.280813,1.229666,1.251198,1.201221,1.109569,1.091022,1.296419,'\'(-inf-6.266667]\''
1.33319,1.341565,1.350142,1.345843,1.268074,1.188792,1.027287,1.063817,0.89433,1.219843,0.724528,1.378228,1.3265,1.440249,0.622142,1.153714,0.894438,1.801976,-0.474665,0.998509,0.587123,1.167509,1.233256,'\'(14.9-27.8]\'',-0.37841,-0.044654,0.105252,-0.097379,0.186902,-0.580996,1.218308,-0.904103,-0.374241,1.042573,-1.389474,-1.353984,-1.394107,1.272842,1.093982,0.916801,1.094206,1.048332,1.024971,0.620183,0.796519,0.803597,-0.745017,-1.252446,-0.69925,-0.484545,-0.389344,-0.319853,-0.730021,-0.766488,0.029045,-0.13813,1.085403,0.965542,1.597069,1.293961,-0.656268,0.207245,1.332242,1.47604,1.512065,1.56576,1.606271,1.479382,1.42297,1.53512,1.552729,1.05995,-0.735852,0.709371,-1.073533,-1.137392,-1.144537,-1.149255,-1.147144,-1.174418,-1.188652,-1.073334,-1.089797,0.09778,0.18412,0.260828,0.52298,0.349016,-0.859723,-0.821604,-1.180637,0.659266,1.182162,1.208348,1.071721,0.914741,0.593298,0.801803,1.220837,0.791293,1.047615,1.44059,1.052278,0.407304,1.296852,1.217799,1.191294,1.199641,1.197657,-0.311682,1.152055,1.29012,1.230893,1.244644,1.21079,1.096251,1.079973,1.296326,'\'(-inf-6.266667]\''
1.353509,1.365631,1.35216,1.359868,1.254895,1.19199,1.034133,1.074914,0.911054,1.175621,0.766179,1.374959,1.324905,1.419566,0.625011,1.147836,1.05376,1.849779,-0.480088,0.85749,0.508696,1.15886,1.227141,'\'(14.9-27.8]\'',-0.664097,-0.156728,0.165192,0.065997,0.195987,-0.528626,1.22481,-0.889324,-0.333977,1.052172,-1.385378,-1.347845,-1.393116,1.278383,1.095038,0.912934,1.089008,1.053941,1.027623,0.685629,0.937652,0.740359,-0.716166,-1.237623,-1.113388,-0.33033,-0.17805,-0.433387,-0.761807,-0.953497,-0.000789,-0.307574,1.06364,0.890304,1.584826,1.300532,-0.574303,0.22021,1.340992,1.491109,1.484738,1.514917,1.554688,1.484302,1.432148,1.544034,1.53264,1.088022,-0.751709,0.717459,-1.070759,-1.131504,-1.115592,-1.120211,-1.122956,-1.167935,-1.188652,-1.080793,-1.096669,0.190746,0.191644,0.254554,0.507129,0.333972,-0.871102,-0.800285,-1.123777,0.739493,1.151523,1.171392,1.062717,0.898796,0.506573,0.766514,1.218616,0.770471,1.01588,1.440442,1.034594,0.400639,1.302652,1.214533,1.184244,1.197212,1.196344,-0.318328,1.128771,1.295648,1.244388,1.264307,1.216259,1.104704,1.087505,1.304759,'\'(-inf-6.266667]\''
1.356782,1.368133,1.362344,1.371421,1.267311,1.199725,1.029222,1.065867,0.891912,1.155134,0.746825,1.375069,1.348775,1.435422,0.643637,1.149852,1.020795,1.822547,-0.454024,1.112388,0.756421,1.162732,1.235328,'\'(14.9-27.8]\'',-0.382531,-0.208282,0.039761,-0.204595,0.145261,-0.486542,1.231217,-0.86617,-0.309819,1.072009,-1.380053,-1.342388,-1.388162,1.283293,1.0975,0.91734,1.086821,1.061419,1.030496,0.685629,0.796519,0.803597,-0.474866,-0.096205,-0.648745,-0.578176,-0.049436,-0.050541,-1.0161,-0.427534,0.327382,0.138333,1.235677,1.4783,1.613924,1.311789,-0.574303,0.221787,1.344661,1.494287,1.478036,1.497454,1.536878,1.486119,1.438937,1.554656,1.552825,1.118119,-0.768916,0.724773,-1.034691,-1.099122,-1.086648,-1.09762,-1.098769,-1.190625,-1.226528,-1.144195,-1.158516,0.124342,0.041165,0.103967,0.348618,0.178523,-0.886007,-0.813452,-1.147109,0.591856,1.153055,1.171392,1.062717,0.898796,0.395646,0.781444,1.220485,0.76589,1.008075,1.44903,1.028733,0.38789,1.308658,1.21708,1.183351,1.198414,1.198908,-0.327368,1.125308,1.301318,1.252976,1.278508,1.223094,1.102134,1.098957,1.299081,'\'(-inf-6.266667]\''
1.367627,1.379614,1.370383,1.385505,1.267097,1.190454,1.020662,1.054265,0.876467,1.057358,0.763364,1.365381,1.338923,1.40953,0.629924,1.135874,1.028494,1.76185,-0.488569,1.076734,0.720746,1.171162,1.24358,'\'(14.9-27.8]\'',-0.720411,-0.093967,0.133002,-0.031007,0.19523,-0.47345,1.237182,-0.861736,-0.287125,1.075849,-1.380053,-1.347845,-1.380236,1.288959,1.098203,0.921387,1.084349,1.067495,1.033591,0.620183,0.937652,0.740359,-0.587647,-0.748444,-1.13359,-0.132054,-0.343411,-0.306652,-0.809487,-0.906745,0.227936,-0.298656,1.010312,0.715134,1.598131,1.321989,-0.574303,0.226048,1.354235,1.506884,1.49687,1.522193,1.561978,1.490395,1.449184,1.56689,1.562306,1.133783,-0.771543,0.710386,-1.004172,-1.081459,-1.057703,-1.091166,-1.092722,-1.15821,-1.181765,-1.136736,-1.151644,0.004814,0.033641,0.116516,0.301065,0.133392,-0.892178,-0.798568,-1.11064,0.304652,1.154587,1.174234,1.062717,0.909426,0.444387,0.792302,1.221425,0.761405,0.99195,1.459185,1.022298,0.371809,1.313145,1.217398,1.182459,1.198426,1.200038,-0.339175,1.126039,1.304211,1.26279,1.28834,1.234031,1.103579,1.097624,1.300916,'\'(-inf-6.266667]\''
1.373532,1.385183,1.370768,1.405065,1.271962,1.173644,1.014026,1.052419,0.866074,1.084936,0.737558,1.37495,1.309635,1.409758,0.540314,1.127753,0.962458,1.680929,-0.500463,1.096955,0.665661,1.175034,1.24141,'\'(14.9-27.8]\'',-0.469061,-0.050258,0.164082,0.120456,0.170245,-0.487711,1.241822,-0.82134,-0.26077,1.097606,-1.36162,-1.323288,-1.37132,1.291005,1.09961,0.922466,1.082503,1.072637,1.019445,0.685629,0.937652,0.803597,-0.71092,-0.911503,-1.052783,-0.363376,-0.361784,-0.140312,-0.841274,-0.789864,0.178214,0.281024,1.052162,0.793928,1.584587,1.33673,-0.574303,0.233319,1.364196,1.508532,1.563079,1.622516,1.663667,1.500111,1.455127,1.575264,1.55566,1.135434,-0.761696,0.662856,-1.001398,-1.072627,-1.077,-1.091166,-1.089698,-1.187384,-1.219642,-1.162842,-1.179132,0.004814,-0.041598,0.041223,0.258795,0.088262,-0.888251,-0.824219,-1.119267,0.265725,1.171439,1.195555,1.077724,0.894809,0.491783,0.911741,1.232473,0.76211,1.029334,1.464414,1.038141,0.366061,1.32118,1.229671,1.193312,1.210059,1.206875,-0.34744,1.143606,1.309824,1.268924,1.299264,1.236765,1.101897,1.095703,1.302795,'\'(-inf-6.266667]\''
1.382381,1.395854,1.388287,1.422188,1.322672,1.177934,1.026624,1.063846,0.861782,1.128911,0.714124,1.420953,1.303229,1.442133,0.390826,1.129389,0.907466,1.496449,-0.475216,1.12037,0.770197,1.192332,1.267154,'\'(14.9-27.8]\'',-0.486916,-0.229576,0.115797,-0.020796,0.167217,-0.372449,1.244599,-0.810995,-0.249057,1.104645,-1.358343,-1.315785,-1.374292,1.293114,1.103479,0.920668,1.080457,1.074039,1.024529,0.554737,0.937652,0.740359,-0.653218,-1.015269,-0.830562,-0.47353,-0.113743,-0.261766,-0.666448,-0.719736,0.053906,-0.057866,1.139656,1.062653,1.586259,1.341268,-0.738233,0.229591,1.372341,1.503411,1.542569,1.577675,1.618174,1.523325,1.45835,1.583634,1.528435,1.163958,-0.775666,0.650974,-1.004172,-1.072627,-1.070568,-1.078257,-1.074581,-1.180901,-1.223085,-1.162842,-1.182568,0.084499,-0.019026,0.041223,0.264079,0.088262,-0.890495,-0.81482,-1.043193,0.109543,1.19595,1.228247,1.098735,0.906768,0.551617,0.964675,1.247188,0.773931,1.097688,1.464363,1.070249,0.365939,1.326926,1.246059,1.211915,1.22625,1.21826,-0.35901,1.182964,1.316096,1.281193,1.318927,1.246335,1.107025,1.09615,1.309157,'\'(-inf-6.266667]\''
1.395297,1.410402,1.391329,1.442334,1.324674,1.223867,1.05481,1.093716,0.89611,1.155044,0.752988,1.454827,1.370401,1.452934,0.569133,1.167163,0.978135,1.755453,-0.311363,1.167199,0.870161,1.166385,1.244895,'\'(14.9-27.8]\'',-0.650362,-0.166815,0.019781,-0.189278,0.111191,-0.513429,1.249113,-0.794737,-0.235147,1.116163,-1.352608,-1.308964,-1.370329,1.296577,1.106821,0.928582,1.07844,1.075441,1.030717,0.685629,1.078785,0.803597,-0.453883,-0.303736,-0.739654,-0.143069,-0.490398,-0.04262,-0.745914,-0.708048,0.302521,0.272106,1.134397,0.96732,1.583811,1.343046,-0.820198,0.237845,1.382319,1.515007,1.516802,1.534927,1.574896,1.535655,1.471736,1.597675,1.530202,1.213932,-0.809524,0.689284,-1.004172,-1.069684,-1.057703,-1.052439,-1.038299,-1.122554,-1.167992,-1.174031,-1.175696,0.243869,0.116405,0.141614,0.248228,0.098291,-0.874788,-0.793637,-1.07025,0.26525,1.205141,1.239619,1.115244,0.898796,0.610778,0.985034,1.249432,0.780401,1.0807,1.467096,1.062311,0.357409,1.334461,1.248264,1.209833,1.228455,1.222259,-0.34889,1.171751,1.323371,1.281193,1.303633,1.254537,1.107149,1.094455,1.316663,'\'(-inf-6.266667]\''
1.403498,1.426347,1.409009,1.46899,1.349977,1.23349,1.054796,1.088096,0.876837,1.123009,0.737818,1.471316,1.39202,1.471425,0.588244,1.169768,1.022959,1.770501,-0.28384,1.094295,0.780843,1.174816,1.251339,'\'(14.9-27.8]\'',-0.441591,-0.25087,0.043091,-0.083764,0.096049,-0.487711,1.256151,-0.766657,-0.202936,1.13984,-1.346464,-1.295321,-1.375283,1.301802,1.114207,0.927682,1.087815,1.07918,1.034696,0.816521,1.078785,0.866835,-0.411918,-1.148681,-0.921471,0.055208,0.014871,-0.193118,-0.888953,-0.848305,0.25777,0.031315,1.156674,1.144615,1.577637,1.35558,-0.902162,0.241553,1.387804,1.514065,1.56175,1.59623,1.637091,1.527393,1.482973,1.609865,1.537013,1.242448,-0.824413,0.694428,-1.001398,-1.052021,-1.006247,-1.010486,-0.989923,-1.099864,-1.171436,-1.185219,-1.192876,0.443081,0.161548,0.129065,0.227093,0.068204,-0.867255,-0.794586,-1.067309,0.344053,1.231184,1.269468,1.133253,0.966563,0.780867,0.949745,1.257166,0.750386,1.114314,1.467778,1.074759,0.361842,1.339126,1.256941,1.218643,1.236892,1.226654,-0.358538,1.180582,1.328297,1.28978,1.313465,1.258639,1.112832,1.099875,1.324559,'\'(-inf-6.266667]\''
1.410428,1.434713,1.434311,1.492735,1.363757,1.242291,1.065078,1.097176,0.89306,1.143774,0.752889,1.471901,1.398753,1.457834,0.568661,1.162758,1.238061,1.701495,-0.294721,1.128884,0.867104,1.173442,1.254594,'\'(14.9-27.8]\'',-0.497904,-0.161211,-0.027949,-0.177365,0.04078,-0.511792,1.260885,-0.739562,-0.186831,1.154558,-1.334585,-1.278951,-1.370329,1.304793,1.112097,0.9311,1.076225,1.081984,1.035801,0.620183,0.937652,0.677121,-0.663709,-1.222799,-1.103287,-0.40193,0.106738,-0.161434,-0.523409,-0.45091,0.058879,-0.013275,1.29109,1.136887,1.599499,1.365606,-0.984127,0.239627,1.397715,1.521129,1.528992,1.533926,1.573881,1.526566,1.491498,1.619103,1.537025,1.29754,-0.859796,0.743248,-0.962555,-0.987256,-0.977302,-0.974986,-0.947595,-1.057724,-1.154219,-1.207596,-1.210056,0.443081,0.154024,0.072595,0.121419,-0.027072,-0.870862,-0.793383,-1.030644,0.342154,1.238844,1.280839,1.145259,0.989152,0.822549,0.899526,1.263289,0.725079,1.123135,1.47403,1.077799,0.373307,1.347143,1.263096,1.223067,1.243012,1.231111,-0.365285,1.181058,1.335227,1.303276,1.323296,1.273677,1.117734,1.09954,1.347651,'\'(-inf-6.266667]\''
1.414186,1.429929,1.430916,1.445213,1.352407,1.24222,1.070215,1.115394,0.912316,1.153529,0.776526,1.489478,1.392231,1.460248,0.49742,1.151169,1.49003,1.653043,-0.324786,1.280546,1.056304,1.185275,1.271724,'\'(14.9-27.8]\'',-0.529495,-0.240784,-0.0446,-0.143329,0.003682,-0.546161,1.265209,-0.723797,-0.157548,1.155838,-1.323935,-1.26599,-1.363394,1.308098,1.106117,0.926603,1.066112,1.085256,1.033591,0.554737,1.078785,0.740359,-0.343724,-0.852209,-1.376013,0.203915,0.235352,-0.145593,-1.063779,-1.011938,0.392022,0.174006,1.133062,0.822988,1.584326,1.37905,-0.820198,0.249152,1.399297,1.509356,1.513856,1.507731,1.547398,1.532253,1.501388,1.629374,1.52902,1.395262,-0.921059,0.836469,-0.932036,-0.960762,-0.948358,-0.93626,-0.91736,-0.992894,-1.09224,-1.192678,-1.196312,0.4298,0.22174,0.116516,0.084433,-0.062174,-0.892178,-0.813879,-0.948295,0.18075,1.244971,1.287946,1.167771,1.033001,1.018184,1.02168,1.275677,0.744972,1.159753,1.484862,1.09805,0.370616,1.354981,1.276194,1.237776,1.255573,1.242649,-0.353849,1.202564,1.343561,1.31309,1.337497,1.283246,1.11739,1.091676,1.341083,'\'(-inf-6.266667]\''
1.419092,1.436258,1.432357,1.463073,1.366082,1.251351,1.073,1.103314,0.88044,1.219193,0.705963,1.503767,1.409088,1.490357,0.51705,1.181343,0.97435,1.551914,-0.195246,1.243828,0.984236,1.212252,1.297106,'\'(14.9-27.8]\'',-0.179253,-0.243025,-0.10676,-0.277774,-0.022816,-0.612793,1.277645,-0.66271,-0.093125,1.21407,-1.314104,-1.250984,-1.361412,1.316597,1.119659,0.928852,1.079719,1.096473,1.043537,0.881967,1.36105,0.993311,-0.401427,-0.555737,-1.254801,-0.181623,0.38234,-0.135031,-0.555195,-0.871681,0.222964,0.120497,1.235325,1.018638,1.58664,1.393126,-0.820198,0.241409,1.405372,1.509062,1.531361,1.529833,1.569729,1.534499,1.509579,1.642028,1.53942,1.329335,-0.860974,0.694824,-0.929262,-0.916604,-0.896901,-0.884625,-0.868984,-0.921581,-0.995827,-1.091982,-1.110413,0.629013,0.379742,0.285926,0.22181,0.058175,-0.912132,-0.842611,-0.921434,0.25623,1.254163,1.299317,1.191783,1.072864,0.968771,1.031181,1.283551,0.776493,1.180651,1.489425,1.10516,0.370127,1.363204,1.285485,1.246961,1.263787,1.249273,-0.363463,1.211808,1.351466,1.326585,1.360438,1.288715,1.113987,1.081176,1.329505,'\'(-inf-6.266667]\''
1.427844,1.444697,1.441805,1.455137,1.366495,1.268464,1.075452,1.107921,0.884536,1.262339,0.695304,1.503944,1.444002,1.495121,0.544376,1.178536,1.138779,1.605015,-0.194962,1.385378,1.152745,1.20938,1.297665,'\'(14.9-27.8]\'',-0.407253,-0.120865,-0.198891,-0.410517,-0.088684,-0.590348,1.284778,-0.642019,-0.03822,1.220469,-1.303864,-1.233248,-1.362403,1.322389,1.132322,0.942611,1.08486,1.101615,1.045306,0.881967,1.219918,0.930073,-0.293891,-0.748444,-0.921471,-0.115531,0.46502,0.033949,-0.682341,-0.661296,0.406939,0.272106,1.321917,1.226114,1.603366,1.393393,-0.902162,0.250852,1.414912,1.521835,1.499875,1.462163,1.501167,1.548103,1.515407,1.649806,1.53296,1.327474,-0.847967,0.654995,-0.904292,-0.828289,-0.855093,-0.845898,-0.83875,-0.911857,-1.002714,-1.073334,-1.065745,0.642294,0.334599,0.216907,0.200675,0.078233,-0.902115,-0.861658,-0.918493,0.420008,1.254163,1.295053,1.190282,0.986494,0.985578,1.002678,1.284116,0.797315,1.155371,1.497825,1.094587,0.378168,1.369728,1.285944,1.242912,1.263551,1.252569,-0.367882,1.202659,1.35917,1.33272,1.360438,1.296917,1.095247,1.065481,1.319974,'\'(-inf-6.266667]\''
1.431542,1.449309,1.444752,1.455519,1.366725,1.311425,1.127434,1.168139,0.961878,1.276579,0.799729,1.535674,1.474525,1.517869,0.574976,1.203162,1.606076,1.61577,-0.089975,1.416775,1.185519,1.212034,1.300887,'\'(14.9-27.8]\'',-0.628386,-0.12983,-0.130625,-0.252246,-0.065971,-0.610455,1.28926,-0.61985,0.010829,1.231988,-1.296081,-1.221652,-1.360422,1.325443,1.13197,0.922556,1.084718,1.105354,1.049063,0.947413,1.502183,1.056549,-0.404049,-1.089387,-1.113388,0.170869,-0.012689,0.015467,-1.079673,-0.731424,0.73511,-0.102457,1.316401,1.062808,1.611747,1.401291,-0.902162,0.250155,1.417925,1.517479,1.457411,1.389491,1.427437,1.60256,1.523245,1.660479,1.537759,1.289198,-0.806987,0.560698,-0.854352,-0.792963,-0.835797,-0.826535,-0.811538,-0.889166,-0.992384,-1.080793,-1.055437,0.522766,0.251836,0.122791,0.095001,0.003015,-0.885527,-0.845719,-0.898298,0.32459,1.254163,1.295053,1.208292,1.006426,1.103901,1.037967,1.291755,0.824128,1.167795,1.500661,1.107897,0.36759,1.374072,1.293879,1.250143,1.271678,1.259956,-0.361743,1.218828,1.36401,1.341307,1.368084,1.307854,1.103876,1.07057,1.304597,'\'(-inf-6.266667]\''
1.440271,1.459563,1.45484,1.482157,1.407517,1.275374,1.063213,1.083127,0.843715,1.136176,0.684838,1.473746,1.474394,1.502128,0.56532,1.172541,1.072076,1.593391,-0.200793,1.490743,1.382445,1.214438,1.312066,'\'(14.9-27.8]\'',-0.827543,-0.188109,-0.183906,-0.17226,-0.17348,-0.611624,1.299296,-0.573542,0.040844,1.271663,-1.284611,-1.211421,-1.347542,1.332494,1.140412,0.925164,1.089121,1.117506,1.050169,0.881967,1.078785,0.866835,-0.191601,-0.89668,-0.345717,0.082746,0.060805,-0.090146,-0.348583,-0.509351,0.237881,-0.147048,1.308155,1.060682,1.618973,1.405934,-1.066092,0.248455,1.427297,1.52313,1.427196,1.330916,1.367918,1.610218,1.522277,1.673377,1.542238,1.326477,-0.825756,0.570312,-0.851577,-0.804739,-0.803636,-0.79749,-0.775257,-0.850268,-0.954508,-1.024851,-1.000462,0.668855,0.334599,0.185535,0.168973,0.078233,-0.862928,-0.825594,-1.017704,0.388202,1.269482,1.313531,1.233805,1.079508,1.229283,1.056969,1.298395,0.828548,1.182181,1.506151,1.112896,0.354932,1.381785,1.301554,1.255008,1.278442,1.265298,-0.367815,1.224578,1.370625,1.342534,1.371361,1.302386,1.118702,1.077038,1.313914,'\'(-inf-6.266667]\''
1.453414,1.474871,1.458011,1.465308,1.398466,1.306633,1.097859,1.127351,0.890659,1.242745,0.711408,1.514638,1.5006,1.526381,0.577627,1.196709,1.180294,1.637193,-0.100696,1.604622,1.350731,1.225741,1.315683,'\'(14.9-27.8]\'',-0.453952,-0.274406,-0.118415,-0.264159,-0.044015,-0.605311,1.306209,-0.546447,0.084769,1.283181,-1.271094,-1.193685,-1.340607,1.337656,1.136367,0.928402,1.075969,1.125919,1.057463,0.881967,1.078785,0.930073,-0.624367,-0.926327,-1.103287,-0.396423,0.051618,-0.071664,-0.793594,-0.906745,0.531246,-0.057866,1.3153,0.949274,1.624204,1.40982,-0.984127,0.248496,1.437444,1.534314,1.413157,1.300083,1.336636,1.632245,1.530217,1.677406,1.513981,1.36765,-0.846826,0.590658,-0.818284,-0.795907,-0.790772,-0.784581,-0.757116,-0.863234,-0.978611,-1.039769,-1.000462,0.58917,0.214216,0.066321,0.084433,0.018058,-0.868458,-0.821874,-1.052212,0.511154,1.272546,1.314952,1.245811,1.059576,1.158356,1.073256,1.301052,0.793952,1.185715,1.515619,1.111916,0.348971,1.386683,1.304077,1.257233,1.280399,1.267984,-0.380566,1.224292,1.376181,1.347441,1.374639,1.309221,1.109162,1.071203,1.334079,'\'(-inf-6.266667]\''
1.468737,1.492657,1.464993,1.473318,1.413694,1.311462,1.090985,1.117901,0.886537,1.169069,0.73301,1.490214,1.519662,1.511646,0.618875,1.198445,1.124274,1.608719,-0.089033,1.583336,1.464766,1.229831,1.328308,'\'(14.9-27.8]\'',-0.867375,-0.342771,-0.042379,-0.051429,-0.03493,-0.666566,1.308134,-0.523785,0.078912,1.299819,-1.262901,-1.182089,-1.337635,1.338128,1.136895,0.941532,1.071254,1.130593,1.047295,0.881967,1.078785,0.930073,-0.582401,-0.985621,-0.941672,-0.043931,-0.499585,-0.100707,-0.571088,-0.801552,0.456662,-0.227311,1.221692,0.780712,1.612401,1.427277,-0.984127,0.25333,1.443215,1.539729,1.394554,1.265429,1.301386,1.648871,1.536205,1.68864,1.501735,1.398253,-0.855541,0.598578,-0.793314,-0.801795,-0.771476,-0.768445,-0.738975,-0.863234,-0.985497,-1.073334,-1.014206,0.549328,0.1465,-0.002698,-0.010673,-0.04713,-0.864611,-0.807442,-1.078093,0.514951,1.278674,1.320638,1.251814,1.084823,1.262897,0.922599,1.303355,0.771272,1.180664,1.510146,1.10837,0.357959,1.392153,1.305964,1.256586,1.283496,1.271281,-0.377834,1.218511,1.381938,1.354802,1.393209,1.306487,1.124118,1.076238,1.341885,'\'(-inf-6.266667]\''
1.480923,1.506934,1.471943,1.490858,1.415277,1.337458,1.11108,1.144781,0.920254,1.248689,0.751033,1.497054,1.552146,1.525088,0.587069,1.207581,1.176944,1.678588,-0.049687,1.592915,1.494692,1.208568,1.3072,'\'(14.9-27.8]\'',-0.49241,-0.425705,-0.12008,-0.07015,-0.132596,-0.671242,1.316308,-0.500139,0.129425,1.318376,-1.257986,-1.176632,-1.333672,1.34477,1.146919,0.959698,1.071793,1.136201,1.054368,0.751075,1.078785,0.866835,-0.372576,-1.030092,-0.901269,0.143331,-0.086183,-0.261766,-0.92074,-0.731424,0.252798,-0.262984,1.337308,1.032086,1.618834,1.442362,-0.984127,0.254723,1.451578,1.545439,1.375027,1.230412,1.265767,1.655323,1.537499,1.70203,1.507534,1.448243,-0.878013,0.627436,-0.793314,-0.795907,-0.748964,-0.742628,-0.720834,-0.866476,-0.985497,-1.069605,-1.021078,0.629013,0.138977,-0.002698,-0.005389,-0.057159,-0.87006,-0.812636,-1.133777,0.471752,1.281738,1.322059,1.260819,0.991809,1.164743,0.853379,1.308632,0.699997,1.199809,1.504616,1.111697,0.355116,1.397819,1.311446,1.260027,1.289889,1.273448,-0.386672,1.217907,1.38632,1.367071,1.403041,1.320158,1.143159,1.082056,1.341002,'\'(-inf-6.266667]\''
1.479639,1.506272,1.46605,1.489621,1.40515,1.339135,1.10775,1.143309,0.920377,1.294422,0.734125,1.481562,1.559986,1.536048,0.580116,1.208607,1.161462,1.703869,-0.042575,1.70094,1.638626,1.2219,1.324001,'\'(14.9-27.8]\'',-0.721784,-0.424585,-0.11675,-0.170558,-0.084142,-0.686673,1.318802,-0.475014,0.143334,1.336294,-1.248974,-1.163672,-1.3307,1.345652,1.142522,0.955381,1.06026,1.144147,1.055694,0.620183,1.078785,0.803597,-0.472243,-0.407501,-0.982076,-0.418453,0.189419,-0.153513,-1.047886,-0.906745,0.466606,-0.075702,1.364247,0.933623,1.628562,1.458675,-0.902162,0.256464,1.457535,1.546911,1.360757,1.195758,1.230609,1.675479,1.548271,1.711174,1.522435,1.482266,-0.888393,0.628908,-0.782216,-0.781188,-0.716803,-0.710356,-0.687576,-0.827578,-0.947621,-1.03231,-0.983282,0.721978,0.199168,0.041223,0.026313,-0.022058,-0.885847,-0.801733,-1.096916,0.467954,1.292461,1.33343,1.271324,1.018384,1.237686,0.853379,1.314732,0.754198,1.212205,1.508969,1.120345,0.344751,1.402377,1.317848,1.26678,1.296157,1.279858,-0.394329,1.230264,1.392764,1.375659,1.418334,1.326993,1.135636,1.076273,1.341084,'\'(-inf-6.266667]\''
1.484508,1.510246,1.47569,1.478009,1.430803,1.332691,1.101007,1.137218,0.919251,1.253396,0.747812,1.456491,1.554147,1.529597,0.559014,1.191452,1.346423,1.796299,-0.106492,1.644001,1.509508,1.23798,1.336363,'\'(14.9-27.8]\'',-0.74788,-0.302424,-0.12785,-0.197787,-0.086413,-0.650201,1.324104,-0.456294,0.158708,1.345253,-1.240372,-1.15003,-1.329709,1.349744,1.141116,0.960687,1.048045,1.15069,1.0568,0.685629,1.078785,0.866835,-0.548305,-1.074563,-0.891168,-0.209161,-0.09537,-0.264407,-0.507515,-0.848305,0.158324,-0.245147,1.2582,0.833576,1.616361,1.473834,-0.902162,0.262219,1.459571,1.541966,1.338283,1.157375,1.19176,1.705763,1.553062,1.722353,1.530792,1.391882,-0.807627,0.464164,-0.715629,-0.742918,-0.678211,-0.674857,-0.660365,-0.791921,-0.895972,-0.972638,-0.917999,0.522766,0.101357,-0.015247,-0.015957,-0.04713,-0.865252,-0.795549,-1.107503,0.453713,1.316972,1.36328,1.290834,1.102097,1.255166,0.837092,1.321666,0.782323,1.227314,1.512453,1.128198,0.353709,1.408875,1.326101,1.273093,1.303454,1.285261,-0.392643,1.237094,1.398062,1.387927,1.429258,1.33793,1.14267,1.078553,1.341048,'\'(-inf-6.266667]\''
1.492046,1.52028,1.493338,1.489913,1.443543,1.33576,1.093305,1.134512,0.932342,1.251847,0.76692,1.419669,1.570536,1.529534,0.558573,1.18228,1.477283,1.778976,-0.139544,1.798323,1.701364,1.245287,1.347213,'\'(14.9-27.8]\'',-0.592675,-0.339408,-0.203886,-0.225017,-0.177265,-0.59292,1.326976,-0.456294,0.122836,1.343333,-1.236276,-1.144573,-1.327727,1.352608,1.153251,0.965813,1.060544,1.15443,1.055473,0.620183,1.078785,0.740359,-0.653218,-0.941151,-1.254801,0.027669,-0.609826,-0.084865,-0.650555,-0.930121,0.571024,-0.236229,1.223378,0.756792,1.594472,1.473391,-0.820198,0.256976,1.462835,1.548794,1.312516,1.10735,1.1411,1.73528,1.556186,1.734575,1.54742,1.34341,-0.754456,0.372541,-0.712854,-0.686985,-0.652482,-0.655493,-0.645247,-0.808129,-0.906302,-0.942802,-0.866459,0.575889,0.056213,-0.040345,0.021029,0.023073,-0.859562,-0.789446,-1.129463,0.549131,1.290929,1.326323,1.266822,1.015727,0.791623,0.804517,1.319574,0.752788,1.188344,1.523609,1.111089,0.365725,1.414631,1.322399,1.265874,1.299997,1.286329,-0.38937,1.215588,1.405107,1.398968,1.441275,1.351601,1.152256,1.077083,1.349951,'\'(-inf-6.266667]\''
1.530683,1.566449,1.464897,1.481893,1.392639,1.336962,1.092202,1.131432,0.927014,1.330713,0.729931,1.403106,1.574614,1.543921,0.572116,1.194626,1.216845,1.820733,-0.088997,1.742448,1.498422,1.256839,1.35037,'\'(14.9-27.8]\'',-0.618772,-0.086122,-0.14339,-0.173962,-0.118211,-0.59596,1.333036,-0.437081,0.173349,1.349732,-1.228084,-1.132977,-1.324755,1.357425,1.14305,0.972108,1.046284,1.159103,1.063873,0.751075,1.078785,0.866835,-0.878781,-0.89668,-1.45682,-0.104515,-1.023228,-0.145593,-0.857167,-1.385956,0.566052,0.031315,1.310884,0.976981,1.591906,1.494328,-0.574303,0.270023,1.48333,1.57493,1.268839,1.033768,1.066448,1.771798,1.561592,1.747518,1.484571,1.221963,-0.634101,0.190482,-0.693433,-0.648715,-0.639618,-0.649039,-0.657341,-0.895649,-1.006157,-1.017392,-0.897383,0.4298,-0.199601,-0.266224,-0.121631,-0.057159,-0.866935,-0.800723,-1.175735,0.658791,1.278674,1.307845,1.230803,1.090138,0.541532,0.816733,1.321608,0.728987,1.154619,1.530457,1.098202,0.37083,1.425123,1.322988,1.264736,1.301546,1.288496,-0.389775,1.19189,1.414787,1.405102,1.443459,1.35707,1.161489,1.081118,1.387953,'\'(-inf-6.266667]\''
1.544961,1.566228,1.474377,1.489444,1.399574,1.311599,1.066463,1.099309,0.891912,1.141644,0.750815,1.361602,1.550559,1.493822,0.537628,1.161608,1.207713,1.934383,-0.214572,1.749366,1.458933,1.249252,1.33952,'\'(14.9-27.8]\'',-0.361928,-0.145521,-0.183351,-0.264159,-0.132596,-0.60461,1.340927,-0.407522,0.188723,1.36829,-1.216205,-1.115924,-1.320792,1.363405,1.152371,0.977145,1.041199,1.163777,1.06321,0.881967,0.937652,0.803597,-0.535191,-0.511266,-1.416416,0.1929,-0.591452,-0.311932,-0.571088,-0.918433,0.123518,-0.254066,1.226306,0.886633,1.575232,1.515495,-0.492339,0.26861,1.494015,1.592412,1.237757,0.985926,1.01791,1.799393,1.571246,1.759409,1.490443,1.253181,-0.648994,0.189723,-0.657365,-0.678154,-0.639618,-0.658721,-0.681529,-0.94103,-1.047477,-1.050957,-0.900819,0.150903,-0.402747,-0.423085,-0.237872,-0.127362,-0.868698,-0.832801,-1.129267,0.594229,1.249567,1.263782,1.199287,0.949289,0.604055,0.790945,1.319187,0.732511,1.114606,1.536981,1.082849,0.385322,1.429726,1.319015,1.256935,1.298201,1.286878,-0.377361,1.174673,1.415646,1.411237,1.444552,1.359804,1.167874,1.077794,1.413602,'\'(-inf-6.266667]\''
1.552747,1.574887,1.476011,1.482546,1.406425,1.29181,1.051033,1.09402,0.900249,1.190664,0.744326,1.333207,1.525966,1.482205,0.513923,1.142994,1.265991,1.784466,-0.28368,1.51735,1.438418,1.250376,1.351882,'\'(14.9-27.8]\'',-0.477302,-0.378634,-0.178356,-0.242035,-0.135625,-0.605779,1.341116,-0.427228,0.182866,1.349092,-1.219482,-1.119334,-1.323764,1.364853,1.144985,0.982181,1.032478,1.169386,1.066967,0.423845,0.937652,0.613883,-0.810587,-1.252446,-1.214398,-0.0219,-0.922174,-0.227442,-0.491622,-0.848305,0.4318,-0.61971,1.173951,0.673786,1.547347,1.524992,-0.492339,0.270289,1.499922,1.590528,1.24157,0.991748,1.023908,1.805959,1.578645,1.768848,1.48484,1.368047,-0.733923,0.286385,-0.657365,-0.707592,-0.633186,-0.661948,-0.690599,-0.957238,-1.057807,-1.10317,-0.95923,0.111061,-0.440367,-0.441909,-0.311844,-0.212609,-0.859322,-0.818148,-1.106719,0.55103,1.264887,1.28226,1.206791,0.885508,0.724058,0.857451,1.328095,0.734433,1.139315,1.538073,1.098219,0.387034,1.435267,1.328023,1.265305,1.307926,1.292617,-0.379554,1.187189,1.420401,1.408783,1.435813,1.370741,1.16185,1.063613,1.421999,'\'(-inf-6.266667]\''
1.558877,1.580775,1.499231,1.474536,1.445832,1.292217,1.054118,1.101134,0.915431,1.165727,0.775176,1.322054,1.52305,1.465532,0.477051,1.134674,1.372842,1.812797,-0.312358,1.650919,1.520582,1.24741,1.346556,'\'(14.9-27.8]\'',-0.584434,-0.277768,-0.182241,-0.221613,-0.15001,-0.655812,1.348376,-0.409986,0.174082,1.36829,-1.217024,-1.118652,-1.318811,1.370992,1.145161,0.981911,1.028899,1.179669,1.076693,0.620183,0.937652,0.613883,-0.626989,-1.296917,-1.446719,0.066223,-0.187237,-0.203679,-0.698234,-1.00025,0.38705,-0.227311,1.276495,0.907346,1.542877,1.527039,-0.574303,0.265394,1.507494,1.588233,1.257747,1.002844,1.035165,1.813049,1.58563,1.77926,1.482573,1.406307,-0.751948,0.286173,-0.654591,-0.710536,-0.62997,-0.661948,-0.70874,-0.996136,-1.095683,-1.110629,-0.997026,0.031376,-0.530654,-0.510928,-0.322411,-0.267768,-0.860043,-0.811172,-1.077113,0.627934,1.289398,1.314952,1.221799,0.886837,0.831624,0.865594,1.339355,0.706884,1.175517,1.545188,1.11874,0.393607,1.441524,1.34026,1.277686,1.319608,1.299729,-0.391867,1.209298,1.425699,1.428412,1.463123,1.376209,1.171237,1.063631,1.435165,'\'(-inf-6.266667]\''
1.556773,1.577243,1.499519,1.447184,1.446098,1.271443,1.011857,1.048973,0.858068,1.151413,0.699294,1.257972,1.530219,1.450451,0.478715,1.111574,1.105999,1.771325,-0.398303,1.626972,1.637493,1.237481,1.344057,'\'(14.9-27.8]\'',-0.870122,-0.263198,-0.269377,-0.430939,-0.175751,-0.665397,1.357781,-0.391758,0.15578,1.395806,-1.218253,-1.122063,-1.316829,1.379208,1.15114,0.988116,1.028189,1.188082,1.087744,0.554737,0.796519,0.550645,-0.414541,-0.585384,-1.062884,0.077238,-0.251544,-0.132391,-0.475729,-0.801552,0.287604,-0.084621,1.186062,0.738784,1.524548,1.541081,-0.492339,0.275943,1.512256,1.58217,1.202978,0.910071,0.941042,1.803351,1.593524,1.788675,1.492885,1.484058,-0.799577,0.335837,-0.651816,-0.71348,-0.636402,-0.678084,-0.729905,-1.009102,-1.109456,-1.140465,-1.045129,-0.088151,-0.575797,-0.548574,-0.375248,-0.348,-0.853712,-0.806249,-1.10417,0.631257,1.31544,1.349066,1.230803,0.924042,1.023563,0.856094,1.350591,0.714412,1.216421,1.554042,1.13612,0.378871,1.448987,1.353866,1.289329,1.331079,1.308611,-0.402931,1.228835,1.434033,1.432093,1.467492,1.374842,1.179399,1.064247,1.461161,'\'(-inf-6.266667]\''
1.558046,1.576899,1.51185,1.469323,1.474307,1.276728,1.020278,1.054302,0.874457,1.193749,0.706742,1.248641,1.531439,1.45404,0.467439,1.113718,1.174247,1.760834,-0.385698,1.628569,1.657536,1.242633,1.350501,'\'(14.9-27.8]\'',-0.666844,-0.627438,-0.230526,-0.429237,-0.123511,-0.624483,1.358665,-0.390773,0.145531,1.402205,-1.22112,-1.128884,-1.313857,1.380026,1.152195,0.988476,1.023246,1.194158,1.075145,0.489291,0.655386,0.550645,-0.359461,-1.237623,-1.163893,0.435238,-0.159677,-0.066383,-1.0161,-0.953497,0.585941,0.022397,1.090263,0.472918,1.485893,1.546875,-0.492339,0.275799,1.528729,1.603949,1.178597,0.866776,0.897118,1.808226,1.60619,1.799501,1.516904,1.445821,-0.759197,0.261111,-0.66014,-0.722311,-0.64605,-0.690993,-0.754092,-1.054483,-1.154219,-1.147924,-1.069181,-0.154556,-0.658561,-0.611319,-0.369964,-0.368058,-0.851869,-0.822789,-1.138286,0.670184,1.309313,1.339116,1.214295,0.862919,0.921711,0.784158,1.351331,0.710023,1.198668,1.564778,1.131475,0.362728,1.452776,1.353854,1.286366,1.330807,1.310901,-0.404179,1.227755,1.437727,1.438227,1.465307,1.387146,1.194551,1.073342,1.476291,'\'(-inf-6.266667]\''
1.56344,1.581388,1.523155,1.473586,1.476972,1.281351,1.038944,1.080221,0.908416,1.249161,0.734215,1.256095,1.518078,1.45172,0.43855,1.130078,1.031696,1.694471,-0.317408,1.585465,1.614783,1.255653,1.364014,'\'(14.9-27.8]\'',-0.975881,-0.34165,-0.183351,-0.342443,-0.09777,-0.593154,1.365545,-0.376486,0.119176,1.417563,-1.217433,-1.128202,-1.305931,1.385975,1.154482,0.985059,1.01728,1.200234,1.084429,0.620183,0.655386,0.613883,-0.490603,-0.852209,-0.931571,-0.043931,-0.269917,-0.193118,-0.682341,-0.906745,0.302521,-0.120293,1.09407,0.449269,1.447095,1.549514,-0.410374,0.284586,1.548753,1.632498,1.196103,0.889515,0.920095,1.815082,1.613065,1.811377,1.535995,1.473441,-0.768695,0.271847,-0.662914,-0.763525,-0.703939,-0.768445,-0.856891,-1.171176,-1.267848,-1.241162,-1.127592,-0.592823,-0.929423,-0.812101,-0.496773,-0.44829,-0.87006,-0.841635,-1.173578,0.589007,1.293993,1.317795,1.181278,0.797809,0.71431,0.785516,1.350355,0.741609,1.163732,1.569813,1.116088,0.36279,1.459971,1.352487,1.280506,1.329221,1.312396,-0.39352,1.209425,1.443512,1.446815,1.468584,1.39945,1.191762,1.071604,1.495492,'\'(-inf-6.266667]\''
1.56226,1.579328,1.539009,1.475881,1.497039,1.261484,1.018702,1.054857,0.889567,1.182656,0.732472,1.211261,1.499448,1.43306,0.440996,1.104379,1.1776,1.673455,-0.41258,1.504579,1.468379,1.268829,1.373779,'\'(14.9-27.8]\'',-0.672338,-0.312511,-0.207216,-0.235228,-0.178023,-0.671242,1.368607,-0.366141,0.073788,1.432921,-1.216205,-1.125473,-1.306922,1.388368,1.157296,0.988386,1.017309,1.210049,1.077356,0.423845,0.655386,0.487407,-0.498471,-1.10421,-0.971975,-0.032915,-0.12293,0.018107,-0.539302,-0.941809,0.521301,0.147251,1.141694,0.715559,1.429533,1.558723,-0.410374,0.290813,1.562568,1.643505,1.187725,0.868868,0.899148,1.823753,1.618016,1.823195,1.563884,1.555959,-0.817752,0.344568,-0.657365,-0.787076,-0.726451,-0.794263,-0.868984,-1.171176,-1.271291,-1.289645,-1.18944,-0.672507,-0.936946,-0.830924,-0.576028,-0.54858,-0.87006,-0.839477,-1.215537,0.501659,1.303185,1.327745,1.184279,0.832357,0.804733,0.801803,1.357278,0.741,1.173249,1.581003,1.121949,0.367712,1.467389,1.360291,1.287039,1.3357,1.316609,-0.416222,1.219305,1.449784,1.450495,1.470769,1.403551,1.202042,1.078056,1.512951,'\'(-inf-6.266667]\''
1.577511,1.597653,1.551948,1.485329,1.515172,1.290193,1.037672,1.074355,0.905152,1.22915,0.73719,1.243165,1.539937,1.447444,0.486157,1.128487,1.110031,1.665167,-0.313763,1.576951,1.60101,1.274574,1.383643,'\'(14.9-27.8]\'',-0.455326,-0.44812,-0.218871,-0.322021,-0.155309,-0.659552,1.376024,-0.369096,0.001312,1.435481,-1.216614,-1.13093,-1.299987,1.395954,1.155713,0.988566,1.012593,1.217994,1.089071,0.554737,0.655386,0.487407,-0.14439,0.00756,-0.850764,0.380161,-0.370971,0.290059,-0.094291,-0.731424,0.894223,-0.013275,1.15808,0.625714,1.415735,1.559331,-0.410374,0.287658,1.576231,1.659045,1.194138,0.876326,0.906715,1.846211,1.621794,1.837087,1.564365,1.479151,-0.749926,0.245354,-0.732276,-0.834177,-0.774692,-0.842671,-0.92643,-1.281387,-1.419353,-1.405259,-1.330314,-0.55298,-0.98209,-0.92504,-0.59188,-0.613769,-0.877513,-0.860254,-1.274554,0.581412,1.293993,1.317795,1.172273,0.791166,0.719352,0.789588,1.360028,0.734625,1.164011,1.597757,1.115142,0.368232,1.4747,1.36305,1.288371,1.337026,1.318074,-0.421991,1.214254,1.454109,1.459083,1.481693,1.409019,1.211377,1.081074,1.539253,'\'(-inf-6.266667]\''
1.58382,1.604792,1.557425,1.473802,1.498037,1.278301,1.012348,1.041961,0.8726,1.160838,0.71692,1.201354,1.546034,1.41926,0.501416,1.10243,1.186356,1.493635,-0.409789,1.548215,1.691015,1.284503,1.400411,'\'(14.9-27.8]\'',-1.030821,-0.411136,-0.174471,-0.323723,-0.093984,-0.666566,1.382147,-0.362692,-0.011133,1.446359,-1.217433,-1.134341,-1.297015,1.401652,1.159934,0.989555,1.015377,1.21706,1.09526,0.685629,0.655386,0.487407,-0.312251,-0.748444,-1.113388,0.402192,-0.288291,0.255735,-0.571088,-0.871681,0.889251,0.254269,1.116336,0.458543,1.397488,1.557556,-0.328409,0.297265,1.592503,1.675998,1.154448,0.801744,0.831048,1.854468,1.629269,1.847985,1.576721,1.545093,-0.787591,0.312406,-0.757246,-0.843008,-0.793988,-0.85558,-0.91736,-1.255455,-1.39525,-1.386612,-1.31657,-0.420172,-0.876755,-0.837198,-0.528475,-0.558609,-0.867977,-0.84687,-1.233576,0.566221,1.293993,1.314952,1.16627,0.791166,0.791287,0.824876,1.364659,0.74305,1.161437,1.603713,1.114805,0.370188,1.482047,1.367377,1.290299,1.341523,1.319997,-0.421114,1.209267,1.458118,1.467671,1.488248,1.411753,1.211935,1.080219,1.587309,'\'(-inf-6.266667]\''
1.590589,1.612372,1.557649,1.433383,1.505175,1.246017,0.991267,1.025031,0.85144,1.029895,0.736878,1.189815,1.500338,1.363104,0.468671,1.071692,1.231943,1.447113,-0.523647,1.636019,1.70038,1.294619,1.407184,'\'(14.9-27.8]\'',-0.930555,-0.392083,-0.162261,-0.206297,-0.129568,-0.653708,1.385145,-0.386339,-0.026507,1.450199,-1.239553,-1.171858,-1.296024,1.406153,1.162044,0.994232,1.015576,1.224538,1.099017,0.489291,0.514253,0.424169,-0.275531,-0.748444,-0.971975,0.187392,0.069991,0.398312,0.001069,-0.871681,0.988696,0.236433,1.109624,0.562957,1.38255,1.558578,-0.246444,0.30388,1.61537,1.697365,1.183392,0.840218,0.870173,1.854123,1.639639,1.861051,1.584392,1.541603,-0.775038,0.301976,-0.815509,-0.887166,-0.871173,-0.926578,-0.974806,-1.268421,-1.391807,-1.394071,-1.313134,-0.380329,-0.741324,-0.692886,-0.422801,-0.443276,-0.866053,-0.840959,-1.177108,0.541536,1.313909,1.341959,1.173774,0.796481,0.69078,0.777372,1.37318,0.701214,1.177645,1.630554,1.123604,0.369638,1.490296,1.376196,1.30114,1.348175,1.325613,-0.422294,1.217431,1.463818,1.477485,1.494802,1.419956,1.216801,1.080761,1.58805,'\'(-inf-6.266667]\''
1.602551,1.62925,1.575873,1.451796,1.523815,1.266802,1.031941,1.078447,0.917411,1.249603,0.746716,1.244859,1.494455,1.391461,0.440324,1.101774,1.349533,1.369264,-0.399797,1.422628,1.503235,1.297117,1.409946,'\'(14.9-27.8]\'',-0.731398,-0.435792,-0.223311,-0.253948,-0.192408,-0.596895,1.39171,-0.376486,-0.108499,1.44252,-1.22153,-1.144573,-1.292061,1.412071,1.161868,0.991534,1.010576,1.230614,1.107637,0.423845,0.514253,0.424169,-0.202092,-0.941151,-0.982076,0.484807,-0.040249,0.429996,0.016962,-0.532727,0.869361,0.289942,1.021791,0.449037,1.353215,1.558607,-0.328409,0.307219,1.633813,1.712669,1.219674,0.883967,0.914559,1.852849,1.655298,1.871198,1.576577,1.640696,-0.834945,0.412906,-0.893194,-0.919548,-0.90655,-0.949169,-0.9869,-1.232765,-1.357374,-1.375423,-1.306262,-0.06159,-0.440367,-0.454458,-0.248439,-0.292841,-0.866134,-0.833817,-1.1326,0.564322,1.3231,1.35333,1.176775,0.864248,0.793976,0.800446,1.381689,0.703168,1.192059,1.64125,1.133519,0.366672,1.497392,1.384921,1.310454,1.356463,1.328879,-0.431638,1.224832,1.467627,1.48362,1.503541,1.433627,1.216512,1.078731,1.604641,'\'(-inf-6.266667]\''
1.586512,1.614825,1.581382,1.436757,1.532443,1.25913,1.025591,1.062079,0.883359,1.191838,0.720613,1.25123,1.485492,1.387212,0.47164,1.106807,1.108177,1.268629,-0.37279,1.322053,1.417965,1.303456,1.417047,'\'(14.9-27.8]\'',-0.699808,-0.365185,-0.267712,-0.352654,-0.20755,-0.542654,1.395719,-0.39767,-0.183902,1.433561,-1.228493,-1.151394,-1.298996,1.417422,1.174355,0.99639,1.022081,1.23482,1.111395,0.358399,0.514253,0.424169,0.309359,-0.437148,-0.48713,0.760191,0.529327,0.187087,-0.396262,-0.637919,0.645609,0.182924,1.063324,0.270505,1.335858,1.557143,-0.328409,0.319713,1.645776,1.718673,1.283745,0.977741,1.009697,1.838313,1.675087,1.883089,1.629127,1.696661,-0.862567,0.473951,-0.893194,-0.922492,-0.90655,-0.952396,-0.992947,-1.219799,-1.340157,-1.394071,-1.326878,-0.088151,-0.410271,-0.423085,-0.274858,-0.322928,-0.874388,-0.831409,-1.088485,0.532041,1.341483,1.376072,1.184279,0.888165,0.889777,0.809947,1.390516,0.681033,1.220831,1.655798,1.147909,0.359977,1.503255,1.394341,1.320778,1.364713,1.337518,-0.446683,1.240334,1.477479,1.493434,1.519927,1.443197,1.229468,1.083956,1.606176,'\'(-inf-6.266667]\''
1.622857,1.654346,1.59384,1.432387,1.528539,1.236743,0.999863,1.014902,0.851525,1.23194,0.659727,1.175126,1.468548,1.381655,0.481685,1.096787,0.849176,1.252355,-0.403797,1.548215,1.619745,1.293402,1.405967,'\'(14.9-27.8]\'',-0.754748,-0.401049,-0.241626,-0.253948,-0.216635,-0.638511,1.403167,-0.388309,-0.282732,1.464277,-1.234638,-1.158215,-1.30395,1.424253,1.177345,0.994411,1.0114,1.239494,1.123552,0.358399,0.231987,0.360931,0.395912,0.600504,-1.113388,0.743668,0.786555,0.324383,0.001069,-0.521039,0.730137,0.182924,1.196744,0.897414,1.348906,1.548022,-0.328409,0.316784,1.657353,1.72762,1.293046,0.993112,1.025292,1.834883,1.682702,1.878697,1.516593,1.775681,-0.900398,0.545084,-0.893194,-0.954874,-0.912982,-0.95885,-0.998994,-1.258697,-1.37459,-1.420177,-1.364674,-0.114713,-0.500558,-0.48583,-0.311844,-0.378087,-0.884645,-0.829768,-1.094955,0.494064,1.333824,1.364701,1.176775,0.860261,0.810447,0.853379,1.396357,0.668796,1.217854,1.661362,1.145291,0.358295,1.513632,1.399705,1.323624,1.370585,1.340936,-0.446043,1.234426,1.483751,1.498342,1.528666,1.443197,1.225766,1.076074,1.605391,'\'(-inf-6.266667]\''
1.638122,1.674585,1.587499,1.447957,1.529642,1.249126,1.020974,1.040811,0.892201,1.329316,0.680087,1.171169,1.469031,1.380901,0.468361,1.102583,1.013941,1.067936,-0.371794,1.464136,1.611044,1.296212,1.41274,'\'(14.9-27.8]\'',-0.702555,-0.369668,-0.333202,-0.420728,-0.266604,-0.663293,1.411405,-0.369589,-0.246861,1.486674,-1.235457,-1.158215,-1.305931,1.431273,1.170838,0.991893,1.013303,1.257255,1.14035,0.423845,0.37312,0.487407,0.311982,-0.807738,-0.790158,1.261391,0.207792,0.218771,-0.634661,-0.731424,0.819639,0.182924,1.275207,0.946801,1.371913,1.531941,-0.328409,0.319201,1.6658,1.737392,1.299921,1.003753,1.036088,1.828221,1.6908,1.886118,1.491553,1.774988,-0.888006,0.544558,-0.884871,-0.972537,-0.912982,-0.974986,-1.035276,-1.336493,-1.464116,-1.479849,-1.419649,-0.313925,-0.703704,-0.667789,-0.412234,-0.473363,-0.879516,-0.822213,-1.119071,0.587583,1.309313,1.329166,1.14676,0.692837,0.575819,0.805875,1.397802,0.684012,1.193673,1.667687,1.137589,0.370983,1.520684,1.40013,1.321127,1.371527,1.34466,-0.432144,1.225785,1.48945,1.51061,1.546144,1.451399,1.21346,1.061299,1.63205,'\'(-inf-6.266667]\''
1.586559,1.588552,1.360551,1.292184,1.284002,1.098651,0.840999,0.851352,0.673255,0.711644,0.609552,0.983388,1.363846,1.203815,0.476885,0.940391,0.83812,0.609926,-0.995456,0.893676,0.466892,1.236638,1.302235,'\'(14.9-27.8]\'',1.129688,-0.29682,-0.318772,-0.429237,-0.243891,9.273343,1.367313,-0.435603,-0.289321,1.44252,-1.259624,-1.180725,-1.33169,1.391516,1.156944,0.976335,0.988788,1.249777,1.133719,0.292953,0.231987,0.297693,-0.430278,-1.311741,-1.184095,0.380161,-0.251544,-0.069023,-0.92074,-1.11713,0.685387,-0.093539,0.857707,0.191325,1.341202,1.522261,0.327309,0.373459,1.754444,1.873483,1.547538,1.342558,1.342357,2.09351,1.704565,1.889644,1.653512,1.288232,-0.500112,0.020288,-1.142895,-1.043189,-1.308555,-1.355796,-1.361811,-1.573122,-1.681043,-1.390341,-1.186004,-0.486576,-0.538178,-0.467006,0.216526,0.344001,-0.893059,-0.845609,-1.233576,0.907543,1.238844,1.233933,1.100236,0.500166,-0.141176,0.786873,1.384004,0.639357,1.100554,1.677781,1.104789,0.373918,1.517788,1.382881,1.300105,1.355298,1.335839,-0.442197,1.188746,1.489564,1.516744,1.548329,1.462336,1.211562,1.04971,1.711359,'\'(-inf-6.266667]\''
2.007955,1.370513,1.008118,0.90685,0.932333,0.620302,0.370154,0.358376,0.21016,-0.469898,0.412744,0.3889,0.8918,0.693725,0.109751,0.424919,1.404643,-0.111139,-3.001546,0.208273,-1.333849,1.040243,0.573384,'\'(-inf-14.9]\'',16.019755,5.554552,-0.447533,-0.432641,-0.418025,20.158963,0.721204,-1.608086,-0.711727,0.790446,-1.792951,-1.794634,-1.729967,0.822041,0.612627,0.625154,0.367813,1.125919,0.93081,-1.081414,-1.461608,-1.472972,-1.29581,-1.786096,-1.386114,-0.368884,-1.556057,-0.781908,-1.683616,-1.315827,0.108602,-0.887254,0.39454,0.181857,1.320145,1.481927,2.212497,0.483715,1.924731,2.135306,2.103201,2.11949,2.05317,2.534801,1.715071,1.883156,0.723991,1.373593,-0.577279,0.164796,-1.309362,?,-1.356795,-1.394523,-1.407163,-1.637952,-1.753353,-1.610381,-1.240979,0.084499,-0.252268,-0.234852,0.211242,0.55461,-0.884405,-0.844903,-1.223576,0.949318,1.153055,1.117379,1.001185,0.198536,-0.566734,0.70408,1.359981,0.495429,0.928952,1.6893,1.055892,0.357714,1.507787,1.348018,1.264684,1.32766,1.322561,-0.465608,1.157615,1.483779,1.509383,1.500264,1.480108,1.218455,1.03652,1.709937,'\'(10.533333-inf)\''
1.841373,1.449432,1.241504,1.147807,1.336912,0.669511,0.48641,0.492143,0.355899,-0.08963,0.471084,0.561556,0.847182,0.801637,0.107061,0.54922,1.365722,-0.025431,-2.504597,0.743611,-1.134052,1.097444,0.704504,'\'(-inf-14.9]\'',1.740894,14.229062,-0.161151,0.042171,-0.238591,8.51654,0.803771,-1.270135,-0.887425,1.098885,-1.699558,-1.704594,-1.634856,0.882794,0.684909,0.638284,0.477038,1.133864,0.816756,-0.4924,-0.897076,-0.840591,-1.025659,-1.4748,-1.325508,-0.726884,-0.26073,-0.322494,-1.063779,-1.00025,0.436773,-0.512692,0.620021,0.500123,1.328524,1.416339,0.737132,2.824266,2.067356,2.333852,2.279121,2.35961,2.308502,2.675167,1.712358,1.8912,1.087623,1.49638,-0.678564,0.34835,-1.309362,-1.390561,-1.360011,-1.400977,-1.41321,-1.654159,-1.749909,-1.584275,-1.302827,0.057938,-0.289888,-0.228578,0.248228,0.464349,-0.885126,-0.850237,-1.246712,0.913239,1.215865,1.201241,1.002686,0.365961,-0.163025,0.723082,1.357278,0.405062,0.878281,1.702837,1.051602,0.350102,1.505946,1.341699,1.257905,1.323312,1.325522,-0.465439,1.148148,1.491111,1.527786,1.522112,1.485577,1.261781,1.045718,1.732981,'\'(10.533333-inf)\''
1.838652,1.52786,1.414582,1.397127,1.543793,0.879125,0.711332,0.759614,0.692507,0.877266,0.568591,0.79973,1.028629,1.016885,0.174311,0.778849,1.264241,0.19934,-1.592733,1.01873,-0.90381,1.15655,0.874453,'\'(-inf-14.9]\'',0.425085,10.548559,0.429375,1.498943,-0.081113,5.322162,0.949935,-1.03416,-0.9987,1.198072,-1.560286,-1.523832,-1.560551,1.013492,0.858669,0.675155,0.71023,1.140875,0.820956,-0.296061,-0.61481,-0.524401,-0.430278,-0.792915,-0.658846,0.033177,-0.472025,-0.100707,-0.571088,-0.719736,0.511357,-0.387838,0.835067,0.157087,1.310134,1.383135,-0.410374,2.890424,2.115766,2.379883,2.193848,2.201349,2.160951,2.540672,1.710383,1.90912,1.119373,1.640509,-0.784497,0.558309,-1.301039,-1.38173,-1.350363,-1.391296,-1.407163,-1.654159,-1.72925,-1.606652,-1.409341,0.044657,-0.31246,-0.209754,0.200675,0.293856,-0.89947,-0.846491,-1.203381,0.713858,1.226588,1.218298,1.032701,0.472262,0.164715,0.826234,1.371852,0.450582,0.931442,1.712584,1.079082,0.334938,1.513694,1.355894,1.277699,1.338388,1.335259,-0.476436,1.178104,1.497612,1.522878,1.554884,1.463703,1.315682,1.057049,1.826881,'\'(10.533333-inf)\''
1.873655,1.556857,1.464865,1.491482,1.586989,1.002339,0.835367,0.897129,0.873616,1.384097,0.626346,0.903829,1.146836,1.141282,0.218795,0.890847,1.406968,0.384106,-1.139699,1.23212,-0.752019,1.160859,0.921699,'\'(14.9-27.8]\'',0.742362,3.401614,3.059544,9.243996,0.061979,4.823004,0.99993,-1.009528,-1.074104,1.221749,-1.550865,-1.509507,-1.558569,1.06178,0.905802,0.658069,0.77372,1.141343,0.843501,0.031169,-0.050279,-0.018497,0.251657,-0.555737,-0.618442,1.228345,-0.26073,0.459039,-0.332689,-0.14702,0.90914,0.218597,1.080717,0.435048,1.307031,1.389552,-0.820198,2.932863,2.142168,2.394598,2.019661,1.905657,1.865386,2.455396,1.718609,1.926135,1.065067,1.720706,-0.84622,0.71188,-1.298264,-1.387618,-1.360011,-1.404204,-1.416233,-1.673608,-1.767126,-1.718537,-1.522728,-0.008467,-0.365127,-0.285048,0.03688,0.123363,-0.914376,-0.855369,-1.168481,0.687749,1.24344,1.239619,1.074723,0.502824,0.24539,0.923957,1.387248,0.479765,0.99732,1.722859,1.092493,0.366764,1.530095,1.375665,1.297,1.354307,1.345362,-0.456298,1.188523,1.505717,1.536373,1.558161,1.492412,1.356322,1.069632,1.915818,'\'(6.266667-10.533333]\''
1.749835,1.595715,1.489366,1.500962,1.610144,1.036599,0.876627,0.934881,0.90723,1.376839,0.678146,0.953516,1.170728,1.189516,0.281485,0.941914,1.258802,0.457245,-0.924232,1.178374,-0.524125,1.178781,1.035656,'\'(14.9-27.8]\'',-0.389398,1.115309,3.129474,9.308666,0.128605,2.666921,1.049293,-0.985882,-1.127545,1.240947,-1.540215,-1.514964,-1.524884,1.109501,0.972984,0.673447,0.849538,1.15256,0.950924,0.227507,-0.050279,0.171217,-0.08931,-1.193152,-0.234607,0.369146,0.024058,0.424715,-0.809487,-0.684672,1.202505,0.254269,1.117285,0.580772,1.308574,1.404942,-0.902162,2.956991,2.153324,2.394128,2.081536,1.979512,1.949358,2.4044,1.715588,1.9313,1.331279,1.864095,-0.9416,0.956492,-1.29549,-1.396449,-1.369659,-1.410659,-1.42228,-1.67685,-1.756796,-1.677512,-1.536472,-0.035028,-0.372651,-0.266224,0.095001,0.103305,-0.932647,-0.861994,-1.081818,0.560524,1.248035,1.243883,1.104738,0.578563,0.300181,1.014894,1.398578,0.490368,1.034634,1.724263,1.113791,0.422957,1.534966,1.388033,1.311541,1.366633,1.355222,-0.425094,1.195162,1.512705,1.541281,1.564715,1.499248,1.384242,1.076631,1.963556,'\'(6.266667-10.533333]\''
1.773376,1.639161,1.534942,1.5165,1.665364,1.035193,0.854894,0.896113,0.849328,1.322785,0.61708,0.933684,1.197362,1.207413,0.337276,0.942865,1.177725,0.435459,-0.904924,1.22201,-0.404627,1.16217,1.047986,'\'(14.9-27.8]\'',-0.058386,0.700636,2.699345,6.606151,0.74413,2.336565,1.079308,-0.944007,-1.137062,1.258224,-1.516457,-1.486315,-1.509032,1.136762,0.996375,0.697099,0.860446,1.16518,0.935231,0.096615,0.231987,0.297693,0.112647,-0.644679,-0.598241,0.721638,0.134298,0.696667,0.001069,-0.439222,1.326812,0.307778,1.159556,0.758994,1.315141,1.423371,-0.902162,3.01428,2.192413,2.435803,2.123653,2.027808,2.002695,2.336691,1.712674,1.942834,1.297564,1.843695,-0.936907,1.009863,-1.298264,-1.402337,-1.366443,-1.410659,-1.42228,-1.67685,-1.746466,-1.655135,-1.505548,-0.035028,-0.372651,-0.247401,0.126703,0.148436,-0.92864,-0.866192,-1.120248,0.560999,1.260291,1.258097,1.122748,0.690179,0.209086,1.027109,1.406582,0.498376,1.070822,1.724405,1.131509,0.456741,1.537602,1.39717,1.322356,1.375442,1.360075,-0.421383,1.18919,1.521068,1.543734,1.557068,1.515653,1.408987,1.088373,2.018184,'\'(6.266667-10.533333]\''
1.770352,1.692076,1.544678,1.547094,1.65393,1.058665,0.876525,0.904351,0.855289,1.335309,0.621288,0.934763,1.222935,1.233747,0.42258,0.972284,1.165468,0.443082,-0.773179,1.374735,-0.126996,1.188054,1.123968,'\'(14.9-27.8]\'',-0.164145,0.260186,2.06331,2.703842,1.611771,2.073075,1.101118,-0.908537,-1.172201,1.28894,-1.504578,-1.479494,-1.490208,1.156247,1.031725,0.707531,0.891466,1.173593,0.907822,0.292953,0.37312,0.424169,0.296245,-1.163505,-0.658846,1.151237,0.43746,0.63594,-0.380369,-0.415846,1.30195,0.343451,1.228157,0.836165,1.326171,1.451143,-0.902162,3.055511,2.218444,2.465587,2.144914,2.049456,2.028717,2.259868,1.707923,1.950747,1.322352,1.885117,-0.96567,1.149124,-1.298264,-1.405281,-1.369659,-1.413886,-1.42228,-1.654159,-1.70859,-1.640217,-1.478061,-0.035028,-0.319984,-0.178382,0.147838,0.188552,-0.930644,-0.869951,-1.113777,0.555302,1.271014,1.270889,1.14676,0.728714,0.201355,1.037967,1.410366,0.498409,1.079977,1.713016,1.136745,0.473128,1.540462,1.400436,1.326276,1.380768,1.361906,-0.415379,1.182551,1.524848,1.551095,1.569085,1.515653,1.413348,1.08739,2.064849,'\'(6.266667-10.533333]\''
1.73845,1.685207,1.536127,1.547565,1.626898,1.074479,0.884007,0.913732,0.860473,1.393247,0.606586,0.946148,1.249594,1.252213,0.440926,0.991778,0.946018,0.382237,-0.680176,1.386443,-0.057809,1.176377,1.124067,'\'(14.9-27.8]\'',-0.149036,0.370019,1.837978,1.446186,1.863887,1.866632,1.10964,-0.883905,-1.189771,1.301739,-1.49147,-1.462441,-1.483273,1.163172,1.060743,0.719312,0.901835,1.179201,0.880856,0.358399,0.514253,0.360931,0.296245,-0.407501,-0.729553,0.815268,0.593634,0.873569,-0.094291,-0.275589,1.54062,0.450469,1.237258,0.790102,1.338919,1.470876,-0.902162,3.108355,2.256775,2.50738,2.246537,2.193254,2.181436,2.185205,1.698577,1.958903,1.410225,1.986601,-1.025665,1.389018,-1.298264,-1.393505,-1.372875,-1.417113,-1.425304,-1.637952,-1.681043,-1.658865,-1.526164,-0.048309,-0.282364,-0.128187,0.121419,0.118349,-0.931766,-0.877908,-1.071034,0.486468,1.277142,1.276575,1.170772,0.873549,0.253121,1.046111,1.417324,0.506513,1.095629,1.710879,1.140528,0.474748,1.548497,1.408536,1.334956,1.388647,1.365539,-0.410892,1.188078,1.527626,1.570725,1.59421,1.533425,1.430535,1.09529,2.132999,'\'(6.266667-10.533333]\''
1.750883,1.688004,1.549386,1.57862,1.650972,1.120779,0.940636,0.971665,0.944694,1.441454,0.708868,0.971559,1.281385,1.270785,0.445411,1.015652,1.385652,0.493342,-0.569749,1.361432,-0.08362,1.179999,1.125415,'\'(14.9-27.8]\'',0.430579,0.262428,1.688681,0.915213,1.896442,2.266426,1.103864,-0.84745,-1.17513,1.324776,-1.477133,-1.451527,-1.464449,1.155082,1.068833,0.727226,0.906778,1.185745,0.879751,0.423845,0.655386,0.487407,0.482465,-0.555737,-0.497231,0.95296,0.896796,1.002944,-0.348583,0.004924,1.520731,0.851786,1.292296,0.81638,1.349539,1.489674,-1.066092,3.151245,2.282705,2.52345,2.31211,2.284482,2.28128,2.12642,1.691773,1.969979,1.375812,2.100571,-1.087439,1.6654,-1.298264,-1.390561,-1.372875,-1.42034,-1.431351,-1.637952,-1.660384,-1.673783,-1.574268,-0.074871,-0.282364,-0.09054,0.100285,0.048146,-0.949876,-0.883958,-1.024762,0.361143,1.312377,1.323481,1.226301,0.921385,0.457496,1.179123,1.430652,0.524324,1.149068,1.706895,1.171335,0.478203,1.551697,1.421882,1.353055,1.403736,1.379732,-0.401885,1.212316,1.539139,1.579312,1.602949,1.54026,1.427585,1.096363,2.173214,'\'(6.266667-10.533333]\''
2.108836,1.677406,1.594801,1.654554,1.759051,1.14334,0.963242,1.004567,0.960956,1.487452,0.71487,1.020697,1.303541,1.303063,0.464644,1.048137,1.172625,0.649051,-0.425203,1.590786,0.134525,1.159485,1.121371,'\'(14.9-27.8]\'',-0.429229,0.405882,1.59988,0.5323,1.945654,2.224576,1.115384,-0.857795,-1.28128,1.325415,-1.48041,-1.454938,-1.467421,1.167233,1.079737,0.738017,0.912118,1.190886,0.902076,0.554737,0.655386,0.550645,0.52443,0.615328,-0.638644,0.892376,0.5477,1.274896,0.239468,-0.14702,1.739512,1.163921,1.387438,0.87276,1.365419,1.514686,-1.311986,3.204622,2.320818,2.564477,2.336085,2.301581,2.304257,2.09173,1.700008,1.980688,0.61823,2.177247,-1.128332,1.905356,-1.298264,-1.399393,-1.376092,-1.42034,-1.431351,-1.618503,-1.608734,-1.602922,-1.54678,-0.074871,-0.23722,0.003576,0.200675,0.088262,-0.951399,-0.884027,-0.984176,0.321267,1.347611,1.367544,1.277327,1.063562,0.624896,1.211697,1.437633,0.564879,1.17752,1.717739,1.19032,0.470346,1.552305,1.429168,1.361865,1.410327,1.391728,-0.402999,1.237348,1.548934,1.590354,1.610596,1.552564,1.461251,1.112084,2.216283,'\'(6.266667-10.533333]\''
1.81718,1.678044,1.560436,1.543601,1.684119,1.020974,0.872952,0.91781,0.858357,1.254921,0.658858,0.936647,1.144984,1.232254,0.096086,0.908999,1.57387,0.323211,-0.960253,1.882402,0.343594,1.162482,1.132451,'\'(14.9-27.8]\'',-0.552844,0.11449,1.678691,0.585057,2.029693,1.884166,1.131449,-0.875038,-1.308367,1.283821,-1.466483,-1.437885,-1.458505,1.184357,1.093982,0.748809,0.923452,1.189951,0.89876,0.096615,0.514253,0.424169,-0.068328,-1.044916,-1.396214,0.594961,0.685501,0.894691,0.032855,-0.158709,1.351673,0.700177,1.404879,1.070613,1.403115,1.537357,-1.066092,3.257999,2.360698,2.602032,2.450939,2.476304,2.480784,2.119014,1.696122,1.994903,1.233342,2.247099,-1.164216,2.078388,-1.301039,-1.408224,-1.388956,-1.430022,-1.440421,-1.589329,-1.546755,-1.509685,-1.484933,-0.101432,-0.161981,0.122791,0.338051,0.183537,-0.942263,-0.868288,-0.939864,0.3075,1.387441,1.418714,1.350865,1.366521,0.861541,1.268702,1.448611,0.53813,1.212386,1.727292,1.206872,0.478203,1.560518,1.441406,1.375797,1.421451,1.403572,-0.401211,1.254661,1.560504,1.594034,1.613873,1.571704,1.461605,1.103933,2.273124,'\'(-inf-6.266667]\''
2.561941,1.710401,1.706642,1.674066,1.990816,1.120372,0.939739,0.973744,0.910867,1.323254,0.707947,1.002351,1.282137,1.292661,0.341455,1.011985,1.198503,0.845622,-0.537924,2.264482,0.613229,1.169227,1.14741,'\'(27.8-inf)\'',-0.580314,-0.154487,1.702556,0.610585,2.050891,1.483203,1.157456,-0.789318,-1.191235,1.351652,-1.444773,-1.41401,-1.440671,1.204818,1.117725,0.76068,0.933111,1.195092,0.919095,0.554737,0.514253,0.550645,0.697537,-0.170323,-0.002285,1.316468,0.354779,1.013505,-0.23733,-0.240525,1.689789,0.709095,1.432743,1.061378,1.437892,1.542605,-1.55788,3.311007,2.398844,2.631346,2.677526,2.817747,2.822949,2.120909,1.692935,2.00875,-0.16094,2.268192,-1.178097,2.110542,-1.303813,-1.411168,-1.392172,-1.433249,-1.437398,-1.498567,-1.42624,-1.382882,-1.374982,-0.074871,0.056213,0.348671,0.52298,0.349016,-0.9167,-0.83539,-0.940649,0.247211,1.41808,1.457092,1.458921,1.236302,0.972133,1.352852,1.463584,0.540789,1.267773,1.730065,1.232342,0.494254,1.569456,1.458324,1.394129,1.437667,1.420696,-0.390079,1.278644,1.576141,1.607529,1.626981,1.570336,1.484223,1.125422,2.348366,'\'(-inf-6.266667]\''
1.965971,1.740698,1.732232,1.674273,2.018931,1.125509,0.924172,0.94966,0.888092,1.206874,0.720424,0.968258,1.312827,1.25658,0.492651,1.012446,1.182605,1.00032,-0.521869,2.735963,0.875962,1.183059,1.161778,'\'(27.8-inf)\'',-0.258916,-0.138796,1.567135,0.3468,1.983509,1.107958,1.168976,-0.808039,-1.186111,1.352932,-1.461568,-1.438567,-1.445625,1.217503,1.11069,0.775429,0.919759,1.203038,0.93081,0.554737,0.514253,0.550645,0.170349,-0.214794,-0.982076,0.793237,0.299659,0.921094,0.080535,-0.380782,1.520731,0.628832,1.418782,1.190678,1.465015,1.547437,-1.72181,3.385092,2.455786,2.676729,2.794863,2.968731,2.968009,2.08397,1.691693,2.024754,0.905792,2.447863,-1.24851,2.301661,-1.303813,-1.408224,-1.395388,-1.436476,-1.443445,-1.485601,-1.41591,-1.435095,-1.423085,-0.101432,0.086309,0.361219,0.449008,0.278813,-0.923111,-0.831969,-0.944178,0.211607,1.434931,1.471306,1.518952,1.265535,0.951628,1.443789,1.484481,0.573271,1.323397,1.732606,1.261714,0.591996,1.58507,1.480725,1.419899,1.460437,1.43901,-0.339951,1.29259,1.589401,1.630839,1.66303,1.58264,1.512238,1.148333,2.414482,'\'(-inf-6.266667]\''
1.873925,1.75895,1.721919,1.595793,1.999705,1.157152,0.95245,0.981376,0.916238,1.269127,0.737204,1.018259,1.34777,1.283952,0.569513,1.049418,1.193358,1.06244,-0.361856,3.028111,1.197883,1.181716,1.176705,'\'(27.8-inf)\'',-0.827543,0.079747,1.390089,0.442103,1.699595,0.547779,1.182264,-0.799664,-1.165613,1.345253,-1.450098,-1.422878,-1.440671,1.230221,1.119132,0.790807,0.923197,1.20631,0.931031,0.423845,0.655386,0.487407,0.416895,-0.437148,-0.072992,0.886868,0.318033,0.873569,-0.316796,-0.380782,1.625149,0.503978,1.42342,1.116097,1.49579,1.570999,-1.639845,3.444142,2.501016,2.706161,2.794748,2.955179,2.941341,2.068573,1.688367,2.04656,1.118421,2.468637,-1.254712,2.212335,-1.306588,-1.411168,-1.395388,-1.436476,-1.446468,-1.498567,-1.422796,-1.412718,-1.416213,-0.101432,0.063737,0.361219,0.485994,0.293856,-0.938417,-0.8313,-0.897317,0.036436,1.470166,1.511105,1.622505,1.499397,1.067597,1.739673,1.505389,0.609053,1.395828,1.73002,1.300155,0.67754,1.595714,1.502902,1.44713,1.483727,1.455859,-0.284864,1.301071,1.601458,1.643108,1.668492,1.604514,1.529319,1.157219,2.489172,'\'(-inf-6.266667]\''
1.861767,1.771952,1.755132,1.604666,2.03455,1.174236,0.960622,0.988537,0.932032,1.277392,0.756823,0.998219,1.37518,1.276006,0.601978,1.051931,1.259023,1.150742,-0.339685,3.237244,1.254348,1.194112,1.183248,'\'(27.8-inf)\'',-0.822049,0.075265,1.56325,0.49486,1.912341,0.269793,1.207387,-0.781436,-1.148043,1.347173,-1.43781,-1.404461,-1.437699,1.254113,1.145161,0.815448,0.942116,1.209581,0.951808,0.227507,0.37312,0.360931,0.576887,-0.288912,-0.780057,1.211822,0.887609,0.744193,-0.507515,-0.521039,1.60526,0.316696,1.485204,1.276891,1.531298,1.595844,-1.72181,3.456554,2.5081,2.677141,2.78614,2.933077,2.912458,1.988147,1.695012,2.162998,1.416459,2.523659,-1.273394,2.116904,-1.301039,-1.414112,-1.388956,-1.433249,-1.440421,-1.492084,-1.457229,-1.47612,-1.478061,-0.101432,0.063737,0.285926,0.385604,0.193566,-0.93433,-0.821443,-0.908886,0.081534,1.516124,1.563696,1.678033,1.555205,1.276343,1.705741,1.532492,0.62696,1.501121,1.725371,1.353274,0.797845,1.608441,1.530443,1.480197,1.514053,1.473075,-0.242765,1.317971,1.613887,1.659056,1.685971,1.623653,2.070394,1.728327,2.532062,'\'(-inf-6.266667]\''
1.884581,1.785886,1.746676,1.615815,1.981598,1.189725,0.991146,1.021766,0.952389,1.344384,0.760818,1.057187,1.372464,1.296413,0.582383,1.081009,1.160482,1.189708,-0.213345,3.636885,1.770164,1.203697,1.217409,'\'(27.8-inf)\'',-0.486916,-0.290096,1.186957,0.210653,1.525461,0.083924,1.236772,-0.741532,-1.131205,1.36317,-1.41569,-1.37854,-1.421847,1.280869,1.15413,0.837212,0.933253,1.225473,0.963081,0.423845,0.37312,0.487407,0.437877,-1.489624,-0.870966,1.54779,0.667128,0.754754,-0.602875,-0.45091,1.411341,0.700177,1.498463,1.083288,1.551598,1.634095,-1.639845,3.491415,2.5343,2.690268,2.845762,3.020211,3.001045,1.95348,1.704187,2.17375,1.353206,2.621194,-1.298464,2.052483,-1.29549,-1.411168,-1.38574,-1.433249,-1.437398,-1.518016,-1.526095,-1.558169,-1.54678,-0.114713,-0.011502,0.147889,0.258795,0.083247,-0.926637,-0.820383,-0.951432,0.228697,1.53826,1.586055,1.735093,1.678262,1.313655,1.724119,1.547242,0.631669,1.519583,1.732526,1.372022,0.82374,1.620891,1.544308,1.494802,1.529576,1.489161,-0.231228,1.337317,1.629238,1.673778,1.700172,1.638691,2.069974,1.723539,2.560941,'\'(-inf-6.266667]\''
1.878473,1.784536,1.76884,1.592941,2.001017,1.188778,0.991201,1.013941,0.939829,1.305685,0.757583,1.061732,1.370434,1.30164,0.5606,1.071294,1.24091,1.145801,-0.242717,3.587396,1.940039,1.204415,1.233092,'\'(27.8-inf)\'',-0.710796,-0.199316,1.031,0.222566,1.307415,0.037165,1.252143,-0.710496,-1.107047,1.372129,-1.396848,-1.361487,-1.401042,1.294216,1.163803,0.854299,0.929503,1.233886,0.972806,0.358399,0.514253,0.424169,0.430009,-0.036911,-0.749755,1.40459,-0.132116,0.960699,-0.269116,-0.485975,1.650011,0.807195,1.555516,1.333774,1.588669,1.662027,-1.55788,3.53195,2.565026,2.716815,2.960442,3.198664,3.188368,1.926302,1.719034,2.187039,1.368087,2.691685,-1.313171,1.953638,-1.298264,-1.411168,-1.38574,-1.430022,-1.440421,-1.514775,-1.539868,-1.565628,-1.54678,-0.114713,0.003546,0.129065,0.253512,0.088262,-0.9288,-0.823964,-0.953589,0.261452,1.571074,1.625839,1.771096,1.727001,1.15365,1.783499,1.556491,0.639709,1.520766,1.73485,1.388523,0.839516,1.625244,1.552773,1.505617,1.539536,1.502744,-0.201947,1.35158,1.639663,1.692181,1.711096,1.661932,2.074494,1.720148,2.595741,'\'(-inf-6.266667]\''
1.844644,1.79533,1.777103,1.606192,2.022641,1.150076,0.971417,0.987899,0.907553,1.174655,0.760455,1.052566,1.310877,1.267754,0.478921,1.038777,1.233543,1.159299,-0.3647,3.546421,2.225095,1.203416,1.252589,'\'(27.8-inf)\'',-0.481422,-0.427947,0.675242,-0.059939,0.947791,0.016123,1.266851,-0.666651,-1.094602,1.402205,-1.379643,-1.341706,-1.388162,1.306083,1.186138,0.867518,0.947513,1.246038,0.968607,0.620183,0.514253,0.424169,0.385421,-0.615031,-0.679048,0.941945,0.777368,0.707229,-0.586982,-0.439222,1.500842,0.361287,1.495839,1.113894,1.607062,1.69674,-1.475915,3.569043,2.593295,2.733414,2.995163,3.24696,3.248625,1.912572,1.728452,2.198488,1.450071,2.684932,-1.301771,1.752537,-1.301039,-1.411168,-1.388956,-1.433249,-1.437398,-1.485601,-1.508879,-1.573086,-1.550216,-0.088151,0.078785,0.19181,0.248228,0.088262,-0.922309,-0.820911,-0.966334,0.295632,1.631938,1.69988,1.814168,1.807631,1.285419,1.877598,1.570477,0.625454,1.535722,1.736629,1.414348,0.841748,1.632662,1.564705,1.52052,1.554761,1.512725,-0.198304,1.371148,1.647424,1.705676,1.720927,1.670134,2.102706,1.722568,2.651402,'\'(-inf-6.266667]\''
1.849831,1.810025,1.801508,1.629199,2.06916,1.200362,0.991153,1.007364,0.929508,1.327281,0.735339,1.062817,1.394976,1.315624,0.571103,1.087494,0.983917,1.263699,-0.164844,3.792272,2.622063,1.211503,1.273368,'\'(14.9-27.8]\'',-0.734145,-0.262078,0.46989,-0.105888,0.688104,-0.314467,1.293899,-0.612953,-1.065319,1.429082,-1.353837,-1.311692,-1.369338,1.329629,1.211112,0.884425,0.962086,1.260059,0.960429,0.292953,0.514253,0.360931,0.390666,-0.718797,-0.598241,0.986006,0.713061,0.88413,-0.650555,-0.275589,1.500842,0.869622,1.546696,1.146277,1.624803,1.744174,-1.55788,3.605727,2.620807,2.726057,2.961713,3.187749,3.201471,1.917249,1.740823,2.206337,1.405878,2.696748,-1.298253,1.553754,-1.301039,-1.408224,-1.38574,-1.430022,-1.428327,-1.404564,-1.436569,-1.517144,-1.508984,-0.048309,0.266883,0.323573,0.327483,0.148436,-0.92239,-0.79159,-0.972412,0.183124,1.672366,1.745663,1.896096,2.029761,1.615848,2.020274,1.600871,0.670237,1.607318,1.751349,1.468244,0.909651,1.649366,1.59504,1.559072,1.586747,1.533909,-0.15553,1.408315,1.659395,1.715491,1.746052,1.67697,2.095368,1.706432,2.73161,'\'(-inf-6.266667]\''
1.843056,1.807645,1.809835,1.640752,2.102087,1.234196,1.034144,1.04787,0.981853,1.435139,0.769673,1.095606,1.417277,1.3376,0.582278,1.118815,1.117243,1.215648,-0.035801,3.674136,2.881141,1.227958,1.308055,'\'(27.8-inf)\'',-0.833037,-0.482863,0.314489,-0.259053,0.544255,-0.540316,1.314004,-0.56763,-1.047017,1.457878,-1.335814,-1.300096,-1.342588,1.346785,1.237492,0.908527,0.973278,1.274549,0.96065,0.554737,0.655386,0.487407,0.721142,-0.881856,-0.48713,1.641421,0.777368,1.037268,-0.221437,-0.485975,1.789235,0.789358,1.606618,1.31565,1.648005,1.79558,-1.55788,3.644315,2.650152,2.725821,2.998572,3.2355,3.258499,1.935317,1.758927,2.218028,1.393781,2.857732,-1.343049,1.526281,-1.301039,-1.399393,-1.38574,-1.426795,-1.407163,-1.375391,-1.443456,-1.539521,-1.533036,0.044657,0.334599,0.311024,0.295781,0.113334,-0.923511,-0.783236,-1.019076,0.246261,1.705165,1.78279,1.953815,2.11051,1.537527,1.881181,1.627856,0.70541,1.699171,1.761811,1.5191,0.967434,1.661852,1.622499,1.592034,1.615426,1.557382,-0.133975,1.449579,1.676951,1.728986,1.756976,1.685172,2.097785,1.694891,2.779355,'\'(-inf-6.266667]\''
1.831757,1.796361,1.798818,1.634325,2.076293,1.231472,1.030662,1.039581,0.951574,1.387234,0.744336,1.139944,1.415447,1.34475,0.602564,1.121041,1.008531,1.256807,-0.024209,3.832715,3.281385,1.234702,1.326763,'\'(27.8-inf)\'',-0.844025,-0.575884,0.160197,-0.412219,0.401919,-0.635004,1.332153,-0.531175,-1.015538,1.480915,-1.321887,-1.289182,-1.324755,1.362556,1.255607,0.934517,0.977795,1.286701,0.967281,0.554737,0.655386,0.487407,0.76573,-0.466795,0.401752,1.327483,0.391526,1.443876,1.765221,0.063365,1.764373,0.673422,1.710124,1.32392,1.68149,1.87591,-1.311986,3.677824,2.676083,2.726351,3.009202,3.24214,3.271971,1.981402,1.775474,2.232574,1.404201,2.863481,-1.337681,1.333865,-1.301039,-1.390561,-1.382524,-1.400977,-1.370881,-1.365666,-1.474446,-1.528333,-1.526164,0.204027,0.357171,0.24828,0.306349,0.123363,-0.923752,-0.784544,-1.050447,0.356871,1.723624,1.800543,1.960614,1.931817,1.287436,1.900495,1.65115,0.745997,1.771866,1.770404,1.563926,1.03341,1.672443,1.646314,1.620443,1.640215,1.579085,-0.098656,1.475373,1.694421,1.748615,1.773362,1.707046,2.10209,1.68505,2.820746,'\'(-inf-6.266667]\''
1.813893,1.771755,1.804839,1.684641,2.13676,1.232205,1.041886,1.055687,0.986998,1.393251,0.791828,1.123443,1.404244,1.299775,0.560997,1.100918,1.365015,1.077828,-0.103167,3.737461,3.110375,1.269984,1.360167,'\'(14.9-27.8]\'',-0.179253,-0.560194,0.004796,-0.316916,0.146775,-0.535172,1.339254,-0.524278,-1.003825,1.471316,-1.310417,-1.272811,-1.320792,1.369197,1.271435,0.955291,0.981687,1.287168,0.963302,0.292953,0.655386,0.297693,0.713274,-0.89668,-0.729553,1.553298,1.126464,1.446517,-0.428049,0.180245,2.157184,1.11933,1.750392,1.572667,1.714918,1.933507,-1.393951,3.702772,2.695602,2.722878,2.830567,2.953996,2.985173,1.999157,1.789706,2.236667,1.414113,2.78485,-1.302592,1.045635,-1.301039,-1.375842,-1.353579,-1.342888,-1.295294,-1.26518,-1.37459,-1.423907,-1.429957,0.536047,0.590413,0.436513,0.459576,0.263769,-0.925274,-0.774714,-1.001038,0.272371,1.768142,1.848572,2.04014,2.039726,1.674337,2.083427,1.671553,0.767588,1.793264,1.790909,1.59301,1.07982,1.688325,1.665579,1.64686,1.660618,1.596025,-0.055814,1.492146,1.706593,1.764564,1.79084,1.726185,2.098839,1.669578,2.875655,'\'(-inf-6.266667]\''
1.81612,1.767855,1.806985,1.655619,2.171208,1.255566,1.076394,1.08481,1.003277,1.328747,0.837686,1.177719,1.414347,1.343109,0.592047,1.132229,1.512783,1.182448,0.021199,3.962558,3.474141,1.278477,1.376048,'\'(14.9-27.8]\'',-0.651736,-0.381996,-0.040714,-0.510925,0.171759,-0.619807,1.366682,-0.458757,-0.976738,1.523149,-1.290756,-1.258487,-1.294042,1.392366,1.314699,0.980022,1.022678,1.310537,0.959987,0.620183,0.937652,0.487407,0.799827,-0.689149,-0.416424,1.845205,0.529327,1.280177,0.287148,-0.275589,1.814096,1.11933,1.704841,1.346565,1.737561,1.993828,-1.311986,3.727391,2.712058,2.711753,2.793592,2.893421,2.926761,2.00989,1.803199,2.254694,1.403061,2.677485,-1.255895,0.779086,-1.301039,-1.328741,-1.295691,-1.242844,-1.159238,-1.177659,-1.316054,-1.304563,-1.295955,1.133684,0.793559,0.543178,0.628654,0.459335,-0.922309,-0.770249,-1.003979,0.314621,1.834889,1.925824,2.082011,2.375904,1.95737,2.276539,1.69486,0.785783,1.841041,1.800195,1.630607,1.099143,1.703877,1.687449,1.673484,1.685345,1.617789,-0.044952,1.545609,1.719767,1.779286,1.810503,1.734388,2.129921,1.6686,2.902971,'\'(-inf-6.266667]\''
1.801144,1.753062,1.824632,1.639726,2.238755,1.286188,1.095544,1.108505,1.019882,1.437015,0.822158,1.224534,1.456789,1.37496,0.593904,1.165651,1.191062,1.237676,0.152517,4.214263,3.96034,1.2885,1.396038,'\'(14.9-27.8]\'',-0.408627,-0.452603,-0.279367,-0.718549,-0.062186,-0.640849,1.381547,-0.40703,-0.920368,1.541067,-1.262901,-1.225063,-1.275218,1.403887,1.325075,1.012847,1.020774,1.319418,0.960208,0.423845,0.655386,0.487407,0.739502,0.600504,-0.426525,1.112683,0.749808,1.30922,0.3984,-0.205461,1.918514,0.914213,1.710908,1.265375,1.752978,2.072559,-1.311986,3.736322,2.7182,2.673315,2.84813,2.957271,2.993847,2.060603,1.822539,2.271015,1.405861,2.64266,-1.233037,0.604168,-1.267745,-1.225707,-1.260314,-1.181527,-1.05644,-1.080415,-1.247188,-1.237432,-1.186004,1.425862,0.92899,0.593374,0.660356,0.559625,-0.91702,-0.737555,-1.076917,0.29041,1.910873,2.019451,2.173228,2.477767,2.524109,2.347456,1.729437,0.796258,1.94639,1.815482,1.692256,1.073645,1.722878,1.722489,1.717559,1.72189,1.648313,-0.053689,1.634332,1.738039,1.792781,1.82252,1.756261,2.090024,1.637373,2.915948,'\'(-inf-6.266667]\''
1.803205,1.752719,1.838852,1.636868,2.286659,1.294671,1.107837,1.121717,1.025355,1.443845,0.827225,1.248154,1.460729,1.38925,0.570133,1.164288,1.453826,1.107281,0.143876,4.07963,3.849339,1.27829,1.385681,'\'(14.9-27.8]\'',-0.440217,-0.568039,-0.268267,-0.694723,-0.057643,-0.649265,1.391174,-0.376979,-0.855946,1.543627,-1.24283,-1.205964,-1.254413,1.411567,1.323668,1.040096,1.004185,1.337646,0.968386,0.358399,0.514253,0.360931,1.022767,-0.540913,-0.537635,2.208712,0.722248,1.285457,0.096429,-0.041828,1.993098,0.744768,1.729684,1.316926,1.767084,2.115788,-1.230021,3.745088,2.723029,2.662014,2.704101,2.721426,2.756602,2.095506,1.851343,2.288913,1.421357,2.642684,-1.219389,0.510136,-1.231677,-1.172718,-1.157401,-1.052439,-0.890149,-0.863234,-1.033704,-1.114359,-1.058873,1.983656,1.335282,0.900821,0.76603,0.679973,-0.904519,-0.660334,-1.122993,0.275219,1.938754,2.040445,2.242279,2.709238,2.29822,2.380533,1.742541,0.780369,1.933924,1.828991,1.683777,1.071138,1.747805,1.732935,1.728905,1.73496,1.65918,-0.054836,1.63646,1.753189,1.806276,1.831259,1.774034,2.089789,1.623763,2.906423,'\'(-inf-6.266667]\''
1.796801,1.750928,1.832479,1.584849,2.284846,1.297021,1.101069,1.111643,1.0062,1.395415,0.817378,1.256546,1.472964,1.372392,0.572727,1.156383,1.39976,1.101416,0.107766,3.867837,3.673935,1.292933,1.401693,'\'(14.9-27.8]\'',-0.782218,-0.392083,-0.257166,-0.502416,-0.127297,-0.664228,1.39878,-0.350376,-0.827395,1.567943,-1.237095,-1.202553,-1.245496,1.417454,1.319975,1.060601,0.986885,1.341385,0.973691,0.358399,0.37312,0.234455,0.264771,-0.600208,-0.466928,1.134714,-0.168863,0.876209,-0.491622,-0.298965,1.674872,0.459387,1.7248,1.259463,1.777511,2.175993,-1.066092,3.733249,2.713034,2.608625,2.534421,2.450837,2.484014,2.147629,1.879918,2.308149,1.434642,2.369334,-1.09578,0.202072,-1.109601,-1.049077,-1.086648,-0.981441,-0.83875,-0.834061,-0.982054,-0.976367,-0.900819,1.638355,1.079469,0.725137,0.734328,0.695017,-0.876151,-0.635828,-1.220047,0.384879,2.020758,2.142089,2.352946,2.952986,2.559404,1.941485,1.774474,0.798629,2.003739,1.841329,1.731474,1.076335,1.770345,1.763907,1.767818,1.768891,1.680455,-0.04421,1.682045,1.768196,1.834493,1.874955,1.787705,2.089596,1.609566,2.893874,'\'(-inf-6.266667]\''
1.78052,1.737779,1.834913,1.571867,2.31759,1.29171,1.088002,1.102367,0.98741,1.38304,0.795332,1.261837,1.476221,1.35752,0.561604,1.144513,1.314176,1.097839,0.054446,3.747039,3.592914,1.283067,1.392356,'\'(14.9-27.8]\'',-0.471808,-0.655456,-0.218316,-0.487099,-0.081113,-0.647863,1.41333,-0.320325,-0.773221,1.582661,-1.225216,-1.19505,-1.227663,1.430045,1.334572,1.072921,1.003958,1.345124,0.978332,0.227507,0.231987,0.107979,0.317227,-0.689149,-0.679048,1.217329,0.125112,0.963339,0.112322,-0.626231,1.684817,0.646668,1.795345,1.315844,1.799226,2.227423,-1.066092,3.717601,2.704991,2.543051,2.485314,2.369433,2.401887,2.223359,1.907877,2.325227,1.436774,2.259188,-1.030497,0.046353,-0.987525,-0.89011,-0.92263,-0.768445,-0.660365,-0.730333,-0.899415,-0.935343,-0.84928,1.850848,0.996705,0.605923,0.56525,0.55461,-0.884325,-0.585186,-1.243183,0.358769,2.125788,2.274378,2.432201,3.164645,2.737224,1.865912,1.818818,0.822462,2.140127,1.860192,1.80405,1.101741,1.79891,1.809451,1.823886,1.815842,1.713696,-0.023801,1.758507,1.789503,1.843081,1.89571,1.783603,2.092918,1.592603,2.875113,'\'(-inf-6.266667]\''
1.814056,1.778698,1.833151,1.589771,2.283294,1.300152,1.084646,1.097111,0.971889,1.385399,0.772739,1.270071,1.497244,1.391001,0.54724,1.146288,1.319019,1.037901,0.054091,3.935419,3.946371,1.282442,1.397748,'\'(14.9-27.8]\'',-0.708049,-0.282251,-0.378158,-0.577297,-0.259033,-0.625886,1.435298,-0.287811,-0.732957,1.601219,-1.212108,-1.179361,-1.218746,1.449876,1.341079,1.086951,1.00819,1.3512,1.013256,0.292953,0.231987,0.171217,-0.128653,0.022384,-1.113388,0.385669,-0.09537,0.873569,-0.173757,-0.404158,1.694761,0.316696,1.791796,1.409012,1.818259,2.252879,-0.820198,3.705045,2.704806,2.544758,2.502993,2.396992,2.431508,2.261783,1.934796,2.336732,1.386676,2.269143,-1.025496,0.035204,-0.857126,-0.704648,-0.684643,-0.558677,-0.548496,-0.804887,-0.982054,-1.002474,-0.869895,1.731321,0.477554,0.166712,0.227093,0.293856,-0.884405,-0.557979,-1.308474,0.421432,2.050447,2.165372,2.337158,2.74631,2.292842,1.520095,1.817267,0.824704,2.04826,1.877963,1.77429,1.112839,1.813496,1.801964,1.811596,1.812324,1.714642,-0.032673,1.736747,1.798869,1.85903,1.906634,1.800009,2.095948,1.5777,2.873635,'\'(-inf-6.266667]\''
1.826611,1.795232,1.854097,1.63894,2.304281,1.304586,1.096767,1.115296,0.986463,1.389884,0.791474,1.29378,1.493053,1.387975,0.513024,1.154892,1.237007,1.120691,0.079479,3.157422,3.077593,1.302051,1.413431,'\'(14.9-27.8]\'',-0.562459,-0.29682,-0.254946,-0.388393,-0.174994,-0.633835,1.442778,-0.271061,-0.75492,1.607618,-1.201458,-1.160944,-1.219737,1.456267,1.346707,1.106825,1.01569,1.358679,1.010382,0.227507,0.090854,0.107979,0.264771,0.155796,-0.901269,0.886868,0.171045,0.488083,-0.380369,-0.626231,1.202505,0.182924,1.767293,1.273838,1.82798,2.280919,-0.738233,3.685259,2.698933,2.534516,2.529048,2.439923,2.475894,2.29274,1.96399,2.350642,1.368814,2.4614,-1.102198,0.172283,-0.676786,-0.628109,-0.556001,-0.465088,-0.469886,-0.782197,-0.982054,-0.998744,-0.890511,1.173526,0.018594,-0.25995,-0.126914,-0.077217,-0.894582,-0.572097,-1.309258,0.412413,2.004336,2.096406,2.282124,2.950276,2.025608,1.573028,1.819876,0.829477,1.955294,1.895404,1.742537,1.12672,1.834785,1.80029,1.803575,1.813414,1.72502,-0.014997,1.706855,1.819689,1.870071,1.917558,1.812312,2.10308,1.56701,2.854795,'\'(-inf-6.266667]\''
1.835936,1.8087,1.860695,1.627647,2.295334,1.317995,1.101374,1.11805,0.98071,1.366118,0.791781,1.314606,1.515823,1.404334,0.490214,1.163028,1.149353,1.208234,0.101739,3.510767,3.52089,1.300427,1.415897,'\'(14.9-27.8]\'',-0.592675,-0.541141,-0.287137,-0.294792,-0.260547,-0.721509,1.449942,-0.245444,-0.735154,1.625536,-1.192447,-1.151394,-1.211811,1.461775,1.340024,1.112491,1.008275,1.361015,1.012814,0.227507,0.090854,0.171217,0.151989,-0.259265,-0.618442,0.57293,0.299659,0.601616,-0.269116,-0.509351,1.32184,0.20076,1.76802,1.365655,1.834798,2.289796,-0.656268,3.653778,2.684513,2.499198,2.430314,2.281207,2.313393,2.322944,1.987948,2.365923,1.359307,2.221466,-0.98278,-0.022732,-0.612974,-0.495636,-0.395199,-0.277911,-0.285454,-0.565017,-0.76857,-0.804811,-0.704969,1.651636,0.334599,-0.027796,0.015745,0.068204,-0.88184,-0.492857,-1.439252,0.612743,2.036124,2.134599,2.277592,2.791635,1.709296,1.414879,1.834673,0.836493,1.950188,1.91542,1.740561,1.103117,1.859256,1.81366,1.813937,1.827685,1.736466,0.002511,1.694656,1.836816,1.887247,1.944868,1.824616,2.126203,1.556435,2.808728,'\'(-inf-6.266667]\''
1.844117,1.803475,1.866844,1.639705,2.330958,1.314723,1.105727,1.129476,0.992955,1.404493,0.795366,1.321052,1.504046,1.416247,0.452752,1.166095,1.114578,1.194522,0.102717,3.338352,3.205928,1.301863,1.411754,'\'(14.9-27.8]\'',-0.54323,-0.343891,-0.285472,-0.454764,-0.187865,-0.699766,1.462567,-0.217363,-0.704407,1.637694,-1.17811,-1.131612,-1.205867,1.472572,1.345476,1.12643,1.008332,1.373168,1.019224,0.292953,0.231987,0.171217,0.01298,-1.044916,-0.396222,0.804253,-0.288291,0.585774,-0.793594,-0.415846,1.580399,-0.093539,1.822378,1.468137,1.850247,2.30779,-0.656268,3.615026,2.668224,2.457759,2.38941,2.212355,2.244,2.351686,2.012535,2.38454,1.350767,2.124515,-0.92047,-0.103857,-0.468702,-0.307231,-0.205453,-0.100414,-0.122186,-0.409425,-0.610178,-0.614607,-0.509119,1.704759,0.319551,-0.052894,0.021029,0.103305,-0.864531,-0.455546,-1.436899,0.778894,2.066502,2.169153,2.262149,2.364862,1.819887,1.32796,1.852984,0.83803,1.983565,1.901286,1.766825,1.08618,1.872796,1.830909,1.828892,1.849303,1.752156,-0.011522,1.725184,1.852309,1.908103,1.963438,1.845123,2.149178,1.552746,2.747239,'\'(-inf-6.266667]\''
1.843337,1.801144,1.856051,1.6044,2.282813,1.302199,1.092352,1.112053,0.978194,1.310817,0.80799,1.284701,1.492839,1.382264,0.454141,1.140673,1.257862,1.147384,-0.010288,3.408063,3.288211,1.295681,1.405934,'\'(14.9-27.8]\'',-0.475928,-0.500795,-0.254946,-0.410517,-0.165152,-0.660721,1.471941,-0.198643,-0.65975,1.649213,-1.172785,-1.124791,-1.202894,1.480725,1.344773,1.132096,1.008077,1.379244,1.033591,0.162061,0.090854,0.107979,-0.015871,-1.237623,-0.305313,0.534376,0.097551,0.076194,-0.571088,-0.672984,0.97378,-0.655382,1.728958,1.126298,1.843416,2.320918,-0.492339,3.580349,2.657035,2.434331,2.435109,2.276478,2.30961,2.3741,2.037646,2.397683,1.361827,2.273629,-0.984308,0.02719,-0.274491,-0.127657,-0.067163,-0.003598,-0.031482,-0.448323,-0.641168,-0.689196,-0.574403,1.213369,-0.27484,-0.529751,-0.438652,-0.327942,-0.88769,-0.501169,-1.359452,0.66876,2.074775,2.175606,2.23569,2.234563,1.712994,1.510919,1.861552,0.858083,1.969875,1.886118,1.766453,1.056401,1.885532,1.838183,1.830574,1.860279,1.762229,-0.032538,1.735286,1.867001,1.921598,1.9689,1.86973,2.179033,1.548179,2.715198,'\'(-inf-6.266667]\''
1.85081,1.80794,1.858613,1.642401,2.242601,1.254855,1.063261,1.098105,0.975768,1.28474,0.81395,1.243171,1.42587,1.333234,0.273336,1.075859,1.589831,1.00509,-0.279964,3.544824,3.577722,1.313635,1.430659,'\'(14.9-27.8]\'',-0.508892,-0.520968,-0.335422,-0.366269,-0.294617,-0.67358,1.475918,-0.187312,-0.646573,1.66713,-1.175652,-1.115924,-1.222709,1.483967,1.34829,1.143607,1.012281,1.38345,1.03337,0.031169,-0.191412,-0.081735,-0.320119,0.437445,-1.56793,0.236961,-0.361784,0.099957,-0.475729,-0.895057,0.869361,-0.271902,1.896016,1.564281,1.869965,2.338148,-0.328409,3.528795,2.633662,2.405547,2.427367,2.259287,2.293922,2.383501,2.092444,2.404706,1.349512,2.269649,-0.97039,0.05776,-0.185708,-0.112938,-0.035003,0.018992,-0.046599,-0.545568,-0.734137,-0.864483,-0.739329,0.695417,-0.756372,-0.912492,-0.866632,-0.739132,-0.915257,-0.575749,-1.270633,0.729524,2.0364,2.118821,2.141742,2.310475,1.446432,1.563581,1.862728,0.867822,1.898849,1.889192,1.733484,1.03017,1.905535,1.837263,1.81897,1.86127,1.767784,-0.040567,1.707839,1.884242,1.941227,1.991841,1.883401,2.199442,1.541053,2.708666,'\'(-inf-6.266667]\''
1.85417,1.828178,1.908897,1.691992,2.391482,1.288942,1.073484,1.102026,0.964113,1.350297,0.774193,1.274895,1.486745,1.375108,0.439105,1.139225,0.93945,1.048403,-0.042326,3.287798,3.351149,1.342953,1.462157,'\'(14.9-27.8]\'',-0.904459,-0.351737,-0.272152,-0.196085,-0.284017,-0.694622,1.489932,-0.164651,-0.591667,1.686328,-1.172375,-1.113195,-1.218746,1.496496,1.359546,1.155029,1.0189,1.384852,1.059673,0.423845,0.231987,0.171217,-0.181109,-0.615031,-1.436618,0.837299,-0.343411,0.099957,-0.555195,-0.930121,0.993669,-0.42351,1.843496,1.361674,1.879618,2.336175,-0.574303,3.499321,2.63134,2.379883,2.382882,2.188889,2.223976,2.400052,2.105572,2.411446,1.316004,2.307255,-0.979159,0.107343,-0.121896,-0.083499,0.058263,0.057719,-0.043576,-0.584466,-0.765126,-0.875671,-0.770252,0.389958,-1.027234,-1.119548,-1.009291,-0.90461,-0.921268,-0.619993,-1.259457,0.652145,2.092943,2.184418,2.192438,2.153376,1.502904,1.667697,1.882097,0.891014,1.922696,1.883191,1.750746,1.031759,1.92669,1.85667,1.836551,1.883135,1.786221,-0.031189,1.729885,1.902457,1.964537,2.007134,1.906642,2.223135,1.5369,2.692586,'\'(-inf-6.266667]\''
1.862855,1.833575,1.908096,1.663608,2.349149,1.290892,1.064697,1.093135,0.964134,1.326596,0.782831,1.248481,1.501319,1.38644,0.451691,1.13745,1.019918,1.079449,-0.063182,2.996714,2.894082,1.355255,1.468009,'\'(14.9-27.8]\'',-0.449832,-0.301303,-0.348742,-0.378182,-0.307487,-0.640849,1.49959,-0.150857,-0.586543,1.702325,-1.171146,-1.110467,-1.219737,1.505247,1.366581,1.169508,1.036427,1.390461,1.072051,0.227507,-0.050279,-0.018497,-0.081442,-1.059739,-0.91137,0.710622,0.014871,0.649142,-0.348583,-0.7548,1.480953,0.307778,1.747675,1.179819,1.879547,2.331247,-0.492339,3.470114,2.627874,2.361812,2.378607,2.181521,2.216594,2.388937,2.126723,2.417466,1.283808,2.39996,-1.013452,0.206899,-0.055309,-0.04523,0.093639,0.102899,0.028988,-0.487221,-0.689374,-0.815999,-0.739329,0.389958,-0.98209,-1.132097,-1.051561,-0.979828,-0.919905,-0.594254,-1.289455,0.667336,2.061891,2.140583,2.162993,1.955429,1.459541,1.717549,1.894085,0.917602,1.926049,1.87216,1.756539,1.029864,1.942733,1.868318,1.841531,1.897406,1.798247,-0.031256,1.742719,1.915831,1.971898,2.034444,1.902541,2.239599,1.530905,2.681468,'\'(-inf-6.266667]\''
1.877625,1.849374,1.89916,1.631232,2.312145,1.29141,1.056009,1.085905,0.960667,1.286915,0.792367,1.227062,1.512834,1.358729,0.451517,1.115216,1.21543,1.105907,-0.16527,2.850907,2.85874,1.364404,1.481719,'\'(14.9-27.8]\'',-0.445711,-0.407773,-0.358177,-0.415622,-0.303702,-0.576554,1.502272,-0.163173,-0.58215,1.692087,-1.175242,-1.113195,-1.225681,1.508709,1.363063,1.175623,1.02924,1.388591,1.080229,0.096615,-0.191412,-0.081735,-0.139144,0.21509,-1.436618,1.002529,-0.986481,0.284779,-0.030718,-0.637919,0.968807,-0.271902,1.848134,1.45125,1.895531,2.327272,-0.328409,3.375977,2.575997,2.299358,2.522982,2.396719,2.250644,2.37911,2.135305,2.424316,1.257196,2.313408,-0.963112,0.168145,-0.033113,0.004816,0.106503,0.089991,-0.046599,-0.526119,-0.720364,-0.801081,-0.698097,-0.048309,-1.132569,-1.238762,-1.072696,-0.95977,-0.920146,-0.588134,-1.278867,0.776046,2.025079,2.08657,2.133608,1.793599,1.34021,1.537155,1.896047,0.923977,1.905235,1.861408,1.746321,1.037232,1.951617,1.870322,1.833963,1.900639,1.802887,-0.034798,1.735508,1.925139,1.987847,2.049738,1.918946,2.274002,1.536584,2.595511,'\'(-inf-6.266667]\''
1.879087,1.855041,1.911779,1.627553,2.340484,1.306577,1.078317,1.120542,1.006162,1.398789,0.815919,1.249456,1.518859,1.395782,0.440267,1.138827,1.215227,1.102895,-0.08649,3.074408,3.144445,1.366714,1.487046,'\'(14.9-27.8]\'',-1.003351,-0.218369,-0.359287,-0.449659,-0.290074,-0.633367,1.50909,-0.150364,-0.559456,1.707445,-1.175652,-1.114559,-1.224691,1.51469,1.359194,1.170137,1.024751,1.402613,1.09106,0.227507,-0.191412,-0.018497,-0.199469,-0.659502,-0.992177,0.594961,-0.380158,0.268937,-0.650555,-0.883369,1.108031,-0.04003,1.858652,1.444835,1.918174,2.327204,-0.410374,3.312502,2.551362,2.254563,2.535461,2.406815,2.155322,2.349375,2.137878,2.424652,1.225932,2.432511,-1.015528,0.288756,0.016827,0.040142,0.180472,0.096445,-0.046599,-0.616881,-0.78923,-0.849565,-0.759945,-0.287364,-1.47867,-1.477191,-1.23649,-1.140292,-0.941783,-0.590013,-1.218478,0.681577,2.034423,2.096932,2.105799,1.824599,1.547611,1.56825,1.910327,0.923752,1.94401,1.861322,1.762822,1.065482,1.964245,1.886015,1.84756,1.916348,1.815615,-0.03409,1.750533,1.938743,2.003796,2.066123,1.929883,2.300025,1.540838,2.521974,'\'(-inf-6.266667]\''
1.890879,1.867135,1.914053,1.662561,2.358294,1.297576,1.065778,1.105382,0.976924,1.432821,0.762433,1.248142,1.51449,1.400225,0.418759,1.135047,1.060932,1.12085,-0.116093,2.711485,2.53745,1.371741,1.481193,'\'(14.9-27.8]\'',-0.714917,-0.269923,-0.248841,-0.219911,-0.242376,-0.588244,1.516254,-0.150857,-0.533101,1.713844,-1.181796,-1.120016,-1.231626,1.521867,1.363591,1.176432,1.024553,1.401211,1.104543,0.162061,-0.191412,-0.018497,0.403781,-1.089387,-0.133598,1.332991,-0.012689,0.535608,-0.030718,-0.649607,1.2572,0.066988,1.853253,1.659343,1.929072,2.320808,-0.410374,3.298923,2.56336,2.262333,2.521884,2.375982,2.144802,2.33999,2.151192,2.422561,1.183302,2.45175,-1.020677,0.331528,0.08064,0.075468,0.251225,0.173898,0.022941,-0.600673,-0.751353,-0.774975,-0.677481,-0.274083,-1.606577,-1.54621,-1.247058,-1.130263,-0.942424,-0.55457,-1.211028,0.697243,1.994976,2.039649,2.060055,1.647847,1.283066,1.666503,1.91571,0.93647,1.940769,1.86367,1.76218,1.074042,1.972691,1.890955,1.846279,1.922034,1.820804,-0.029637,1.741893,1.947907,2.016064,2.077047,1.944921,2.338946,1.552038,2.498031,'\'(-inf-6.266667]\''
1.893372,1.872581,1.918024,1.652475,2.375094,1.27537,1.03429,1.06406,0.909202,1.317282,0.709264,1.244797,1.504558,1.394822,0.397049,1.112791,0.966872,1.113458,-0.218519,2.648159,2.577184,1.373334,1.48721,'\'(14.9-27.8]\'',-0.710796,-0.310269,-0.267712,-0.240333,-0.258276,-0.469007,1.524366,-0.129673,-0.53603,1.74008,-1.180568,-1.111831,-1.240542,1.528604,1.359546,1.174634,1.021371,1.40308,1.123773,0.162061,-0.191412,-0.018497,-0.02374,-1.10421,-1.052783,0.958468,-0.040249,0.242534,-0.555195,-0.661296,0.993669,-0.147048,2.020323,2.035149,1.972073,2.316647,-0.410374,3.275573,2.560264,2.248382,2.544358,2.403268,2.187157,2.332968,2.145357,2.438668,1.196588,2.606908,-1.083824,0.479181,0.086188,0.096074,0.257657,0.225533,0.122715,-0.483979,-0.689374,-0.782434,-0.684353,0.124342,-1.358287,-1.452093,-1.273476,-1.155335,-0.94026,-0.511934,-1.18299,0.587583,2.009637,2.057914,2.039359,1.606669,1.238359,1.659065,1.924913,0.940378,1.954334,1.863868,1.766707,1.068264,1.985034,1.900717,1.851648,1.932143,1.829809,-0.042051,1.745228,1.96174,2.041827,2.090156,1.976364,2.406383,1.591983,2.478512,'\'(-inf-6.266667]\''
1.897181,1.882688,1.934647,1.688213,2.381924,1.300955,1.060333,1.099835,0.961279,1.420377,0.745006,1.25753,1.528726,1.399719,0.396508,1.121928,1.198061,1.130523,-0.197095,2.336854,2.318265,1.378517,1.493917,'\'(14.9-27.8]\'',-0.831664,-0.408894,-0.190011,-0.129714,-0.201493,-0.548265,1.529037,-0.132137,-0.540422,1.7452,-1.186302,-1.113877,-1.251441,1.53342,1.359546,1.185605,1.020661,1.407287,1.132172,0.162061,-0.191412,-0.018497,0.07855,-0.867033,-0.971975,0.798745,0.363966,0.395672,-0.777701,-0.672984,1.287034,-0.022194,1.895079,1.632293,1.987145,2.310987,-0.492339,3.256565,2.55848,2.239494,2.491958,2.324229,2.12487,2.331203,2.150518,2.438965,1.177845,2.733644,-1.129997,0.601159,0.097286,0.134344,0.286601,0.251351,0.16202,-0.422391,-0.637724,-0.778704,-0.687789,0.243869,-1.245428,-1.383075,-1.289327,-1.180408,-0.962778,-0.516114,-1.130835,0.551979,2.014769,2.060999,2.023751,1.686873,1.433994,1.727376,1.930977,0.950308,1.947517,1.863124,1.758937,1.057013,1.999039,1.906588,1.852178,1.938882,1.834784,-0.066035,1.743863,1.973138,2.057776,2.110912,1.987301,2.443016,1.603051,2.465542,'\'(-inf-6.266667]\''
1.902643,1.891789,1.935383,1.6826,2.415008,1.301803,1.065987,1.104138,0.970665,1.356832,0.781603,1.252031,1.523478,1.381083,0.406679,1.124157,1.218739,1.17854,-0.202785,2.699245,2.388629,1.398999,1.503518,'\'(14.9-27.8]\'',-0.551471,-0.200437,-0.11564,-0.196085,-0.070514,-0.50057,1.533992,-0.124254,-0.544815,1.761198,-1.18917,-1.117288,-1.253422,1.537858,1.354621,1.188303,1.018275,1.406352,1.143003,0.227507,-0.191412,-0.018497,-0.296514,-0.629855,-1.143691,0.539884,-0.508772,0.498644,-0.253223,-0.509351,1.162726,0.129415,1.846471,1.401632,1.989601,2.320839,-0.574303,3.232765,2.554206,2.214654,2.51576,2.369069,2.184297,2.335306,2.166957,2.412537,1.077671,2.694138,-1.110772,0.574779,0.15555,0.160839,0.302682,0.254578,0.16202,-0.367286,-0.544755,-0.670549,-0.591582,-0.035028,-1.275524,-1.345428,-1.247058,-1.145306,-0.95797,-0.478039,-1.1675,0.678729,2.07865,2.144193,2.101026,1.762227,1.612823,1.592505,1.948877,0.950404,2.015787,1.86592,1.784678,1.048666,2.011588,1.925581,1.873666,1.958294,1.845987,-0.079832,1.786302,1.978895,2.068818,2.131667,1.994136,2.485345,1.616073,2.435408,'\'(-inf-6.266667]\''
1.90599,1.899468,1.9448,1.702793,2.439297,1.309686,1.062421,1.095504,0.97052,1.379184,0.773244,1.224273,1.545529,1.390982,0.44728,1.129101,1.188907,1.177578,-0.197735,2.694988,2.356377,1.399249,1.502433,'\'(14.9-27.8]\'',-0.732772,-0.060345,-0.12008,0.006433,-0.166666,-0.622145,1.538979,-0.112924,-0.552135,1.767597,-1.183845,-1.115241,-1.243515,1.542108,1.357787,1.197386,1.016883,1.402613,1.158254,0.162061,-0.191412,-0.018497,-0.154881,-1.237623,-0.790158,0.809761,-0.407718,0.435276,-0.634661,-0.649607,1.316867,-0.04003,1.953069,1.856038,2.017344,2.32989,-0.738233,3.212037,2.549781,2.193581,2.520498,2.37962,2.226929,2.339904,2.174623,2.41606,1.050643,2.656548,-1.091875,0.552819,0.15555,0.175558,0.309114,0.26426,0.183185,-0.308939,-0.472446,-0.603418,-0.543479,0.057938,-1.140093,-1.213665,-1.151951,-1.075103,-0.940901,-0.447687,-1.231223,0.703889,2.126569,2.205967,2.125459,1.851015,1.883083,1.655821,1.963404,0.927725,2.039272,1.870398,1.793579,1.015128,2.029489,1.941604,1.884339,1.973816,1.858868,-0.079225,1.796213,1.994246,2.084766,2.137129,2.011908,2.515568,1.624775,2.418094,'\'(-inf-6.266667]\''
1.916458,1.912813,1.952582,1.703789,2.422288,1.282669,1.043103,1.070615,0.939472,1.222334,0.786978,1.201368,1.509711,1.347639,0.413623,1.10276,1.123843,1.192346,-0.315398,2.307054,1.927867,1.396845,1.494838,'\'(14.9-27.8]\'',-0.431976,-0.308028,-0.07568,-0.008884,-0.099284,-0.663059,1.54485,-0.116865,-0.564581,1.784875,-1.197362,-1.14048,-1.239552,1.548215,1.362887,1.202243,1.017536,1.398874,1.173506,0.227507,-0.332544,0.044741,-0.16275,-1.311741,-0.628543,0.446253,0.069991,0.411514,-0.332689,-0.965185,1.346701,-0.102457,1.809553,1.410674,2.021668,2.324457,-0.574303,3.191186,2.544261,2.183692,2.540141,2.413182,2.307395,2.35245,2.180802,2.422423,1.04116,2.547735,-1.039942,0.475288,0.15555,0.166726,0.315546,0.270714,0.177138,-0.218177,-0.327828,-0.424402,-0.381989,0.031376,-0.929423,-0.950138,-0.898334,-0.839422,-0.937776,-0.430372,-1.271613,0.789813,2.05587,2.109753,2.081816,1.78548,1.755684,1.587279,1.966683,0.950052,2.011502,1.876707,1.782904,1.00406,2.040536,1.943502,1.88258,1.97679,1.859906,-0.087861,1.785286,2.000317,2.094581,2.152422,2.01601,2.546066,1.631987,2.386366,'\'(-inf-6.266667]\''
1.933231,1.933518,1.968948,1.729398,2.418003,1.294094,1.057405,1.095968,0.969679,1.384072,0.770321,1.228999,1.517152,1.37737,0.402984,1.118992,1.160541,1.173995,-0.266008,2.367187,2.11873,1.410895,1.517031,'\'(14.9-27.8]\'',-0.720411,-0.054741,-0.196116,-0.102485,-0.221178,-0.626821,1.5493,-0.102578,-0.570437,1.790634,-1.18835,-1.120698,-1.246487,1.55174,1.353214,1.20593,1.001628,1.397472,1.183231,0.292953,-0.332544,-0.081735,0.220183,-0.540913,-0.709351,0.936437,0.189419,0.345506,-0.904847,-0.672984,1.078198,0.254269,1.957063,1.890585,2.051654,2.316756,-0.574303,3.17777,2.545793,2.179866,2.615304,2.528694,2.441659,2.341646,2.188407,2.427007,1.016799,2.696241,-1.094647,0.608194,0.15555,0.152007,0.293034,0.241669,0.134809,-0.308939,-0.431127,-0.547476,-0.498811,-0.154556,-1.140093,-1.138371,-1.072696,-1.009915,-0.948434,-0.429523,-1.220243,0.787439,2.047445,2.096093,2.055102,1.707123,1.48845,1.607896,1.971784,0.915936,2.000817,1.890823,1.764038,0.993696,2.058134,1.948701,1.881558,1.981002,1.859722,-0.105234,1.763113,2.009396,2.124025,2.180825,2.041984,2.575081,1.639403,2.375929,'\'(-inf-6.266667]\''
1.941921,1.941761,1.990631,1.759413,2.422962,1.284623,1.04731,1.086671,0.963076,1.416371,0.749181,1.21399,1.508782,1.37294,0.407705,1.115784,1.021757,1.246854,-0.292819,2.325679,2.043803,1.389008,1.491977,'\'(14.9-27.8]\'',-0.54323,-0.353978,-0.085115,0.060892,-0.143196,-0.676386,1.55779,-0.09174,-0.555796,1.799593,-1.185483,-1.117288,-1.244505,1.559515,1.367108,1.211865,1.020263,1.399809,1.195609,0.096615,-0.473677,-0.271449,0.238543,-0.644679,-0.769956,0.941945,0.363966,0.387751,-0.698234,-0.637919,1.30195,-0.147048,2.024458,2.121285,2.095869,2.335282,-0.574303,3.169044,2.54655,2.172449,2.670708,2.609189,2.541687,2.338123,2.196077,2.426751,0.985461,2.871488,-1.154586,0.7501,0.15555,0.125513,0.283385,0.202943,0.038058,-0.467772,-0.596405,-0.748868,-0.722149,-0.579542,-1.508766,-1.439544,-1.358015,-1.335858,-0.968789,-0.485952,-1.177108,0.649296,2.048149,2.096434,2.034452,1.581023,1.293822,1.557609,1.9794,0.918403,1.997561,1.902553,1.760289,0.982231,2.071469,1.956365,1.885012,1.988212,1.86543,-0.120717,1.759174,2.021167,2.149788,2.181917,2.084364,2.605714,1.648258,2.420113,'\'(-inf-6.266667]\''
1.977346,1.965949,1.978269,1.720177,2.392543,1.242139,1.018779,1.058502,0.932338,1.283378,0.754561,1.181427,1.450197,1.33522,0.315139,1.069984,1.257106,1.11631,-0.486151,2.263418,2.095263,1.385885,1.494147,'\'(14.9-27.8]\'',-0.627013,-0.288975,-0.193896,-0.270966,-0.143953,-0.664228,1.561546,-0.086814,-0.583614,1.808551,-1.185073,-1.124109,-1.233607,1.562947,1.360953,1.203412,1.013758,1.394667,1.205777,-0.165169,-0.332544,-0.334687,-0.128653,-0.511266,-1.376013,0.661053,0.014871,0.456399,-0.364476,-0.427534,1.152782,0.004561,1.746749,1.123941,2.087017,2.327128,-0.492339,3.174861,2.558631,2.172567,2.68001,2.622832,2.530983,2.333994,2.208305,2.43044,0.88676,2.973182,-1.187127,0.79881,0.15555,0.10785,0.276953,0.170671,-0.013341,-0.474255,-0.582632,-0.700385,-0.708405,-0.805316,-1.523814,-1.414447,-1.289327,-1.3158,-0.973357,-0.463046,-1.168481,0.652619,2.056223,2.100116,2.04164,1.642093,1.369455,1.576774,1.991846,0.895499,1.989033,1.915471,1.755796,0.971102,2.094439,1.968732,1.892838,2.000637,1.881089,-0.113161,1.745578,2.046083,2.16451,2.210319,2.092567,2.631577,1.650734,2.441964,'\'(-inf-6.266667]\''
1.981947,1.967151,1.98698,1.737197,2.417752,1.288168,1.057995,1.089627,0.96181,1.40894,0.750121,1.224629,1.503258,1.363401,0.404901,1.118669,1.083272,1.02188,-0.310118,2.251179,1.890661,1.390132,1.488328,'\'(14.9-27.8]\'',-0.357808,-0.188109,-0.175026,-0.112696,-0.188622,-0.660721,1.568553,-0.081395,-0.576294,1.823269,-1.190398,-1.130248,-1.23757,1.569588,1.36746,1.197206,1.016428,1.389994,1.22147,0.096615,-0.191412,-0.081735,0.31985,-0.792915,-0.406323,1.305452,-0.196423,0.540889,0.843412,-0.263901,1.003613,-0.245147,1.77028,1.288291,2.082014,2.340554,-0.574303,3.183177,2.573422,2.173626,2.710688,2.678041,2.577676,2.338746,2.218543,2.430973,0.854019,3.126121,-1.234406,0.88709,0.15555,0.096074,0.283385,0.193261,0.025964,-0.406184,-0.530982,-0.640713,-0.677481,-0.632665,-1.365811,-1.32033,-1.204788,-1.270669,-0.958932,-0.430157,-1.182402,0.689173,2.098994,2.153006,2.082026,1.628686,1.473659,1.655807,2.006279,0.916929,2.028879,1.91638,1.767686,0.970002,2.110803,1.984932,1.906538,2.016444,1.892658,-0.108034,1.769943,2.054531,2.175552,2.204857,2.113073,2.6543,1.648335,2.4423,'\'(-inf-6.266667]\''
1.991572,1.976179,2.001521,1.731531,2.43009,1.280466,1.046086,1.077072,0.939315,1.427819,0.71147,1.224867,1.501061,1.371338,0.411749,1.125417,0.802896,1.118157,-0.298224,2.063864,1.712394,1.404088,1.501874,'\'(14.9-27.8]\'',-0.540483,-0.148883,-0.14672,-0.095677,-0.157581,-0.640849,1.576317,-0.070064,-0.552867,1.845027,-1.196543,-1.137069,-1.242524,1.576608,1.373615,1.204851,1.020718,1.388591,1.23849,0.227507,-0.332544,-0.081735,-0.309628,-1.074563,-1.173994,0.528869,-0.23317,0.274217,-0.507515,-0.708048,1.013558,-0.066784,1.826501,1.420296,2.088865,2.335076,-0.574303,3.182522,2.580187,2.167505,2.702657,2.655666,2.563926,2.320643,2.228026,2.429411,0.80393,3.249663,-1.269409,0.950093,0.15555,0.116681,0.283385,0.199715,0.047128,-0.402942,-0.530982,-0.648172,-0.684353,-0.539699,-1.358287,-1.32033,-1.215356,-1.280698,-0.949716,-0.428141,-1.166128,0.706263,2.095241,2.143553,2.063987,1.584305,1.609125,1.69282,2.019031,0.940602,2.051307,1.930333,1.768531,0.959148,2.129787,1.999245,1.916952,2.02908,1.905417,-0.105504,1.776931,2.070168,2.193954,2.22452,2.126744,2.683374,1.651032,2.505472,'\'(-inf-6.266667]\''
1.987169,1.96904,2.001296,1.722015,2.429886,1.274478,1.040842,1.077206,0.949347,1.356748,0.751661,1.204554,1.494335,1.36119,0.369187,1.100553,1.148081,1.158771,-0.409664,1.811627,1.502577,1.406149,1.504175,'\'(14.9-27.8]\'',-0.448458,-0.134313,-0.203886,-0.267563,-0.158338,-0.663059,1.580042,-0.067601,-0.597524,1.846946,-1.192856,-1.135023,-1.23658,1.580165,1.378012,1.211416,1.020831,1.388591,1.236058,0.031169,-0.191412,-0.081735,-0.118162,-1.000445,-0.931571,0.963976,-0.554705,0.229332,-0.300903,-1.011938,1.202505,-0.441347,1.821219,1.287827,2.085618,2.347345,-0.574303,3.181129,2.585504,2.161971,2.640377,2.552342,2.481707,2.321979,2.235351,2.430357,0.794512,3.204424,-1.249166,0.886284,0.15555,0.128456,0.283385,0.212624,0.092481,-0.286248,-0.417353,-0.547476,-0.598454,-0.340487,-1.087425,-1.113274,-1.072696,-1.155335,-0.932647,-0.387818,-1.204557,0.771774,2.106501,2.156516,2.082507,1.659992,1.745936,1.822642,2.029714,0.976992,2.071787,1.943029,1.775861,0.942792,2.142022,2.010822,1.926707,2.039561,1.915246,-0.113836,1.794307,2.080393,2.197635,2.231075,2.134947,2.715512,1.65659,2.472624,'\'(-inf-6.266667]\''
1.999009,1.981625,2.020001,1.745852,2.456913,1.297532,1.053993,1.084073,0.957471,1.320381,0.776441,1.211706,1.528987,1.384054,0.415365,1.124281,1.190922,1.161168,-0.331862,1.961692,1.552686,1.400248,1.493293,'\'(14.9-27.8]\'',-0.399013,-0.210524,-0.10343,-0.122907,-0.086413,-0.608117,1.586133,-0.062182,-0.629735,1.856545,-1.192037,-1.135023,-1.234598,1.585894,1.381354,1.206559,1.024467,1.391863,1.243352,0.292953,-0.050279,0.107979,-0.299136,-1.044916,-1.285104,0.57293,-0.187237,0.092036,-0.809487,-0.859993,0.929029,-0.245147,1.819544,1.231563,2.085945,2.363645,-0.492339,3.187089,2.596424,2.172626,2.611433,2.503772,2.446826,2.330414,2.236219,2.431905,0.77475,3.300028,-1.271393,0.943455,0.15555,0.128456,0.286601,0.219079,0.098527,-0.305697,-0.438013,-0.558664,-0.615634,-0.313925,-1.132569,-1.15092,-1.088547,-1.180408,-0.933529,-0.368217,-1.181225,0.768451,2.082986,2.12273,2.037288,1.651647,1.566771,2.001136,2.031172,0.967959,2.039077,1.959049,1.76544,0.924387,2.149378,2.011707,1.921221,2.039548,1.91494,-0.141328,1.788621,2.086063,2.209903,2.237629,2.151352,2.746374,1.663904,2.481586,'\'(-inf-6.266667]\''
2.001143,1.981723,2.025253,1.76436,2.455215,1.307661,1.069556,1.096984,0.981003,1.316664,0.810984,1.200977,1.532023,1.353411,0.458653,1.122908,1.338286,1.097448,-0.35213,1.701473,1.236437,1.40668,1.492997,'\'(14.9-27.8]\'',-0.644868,-0.002066,0.055856,0.050681,0.053651,-0.544524,1.588879,-0.060211,-0.630467,1.866144,-1.196133,-1.144573,-1.230635,1.588507,1.379771,1.209887,1.018473,1.395602,1.247994,0.292953,-0.191412,0.044741,-0.270285,-0.748444,-0.982076,0.539884,-0.490398,0.234613,-0.841274,-0.567791,1.068253,-0.218393,1.75277,1.036453,2.066573,2.374428,-0.492339,3.194483,2.607867,2.185517,2.615362,2.507047,2.45347,2.345045,2.233263,2.434511,0.767221,3.440161,-1.305051,1.039964,0.15555,0.113737,0.283385,0.212624,0.08341,-0.364044,-0.496549,-0.603418,-0.660302,-0.380329,-1.268,-1.257586,-1.151951,-1.245597,-0.945549,-0.348499,-1.16554,0.78649,2.076077,2.111217,2.032666,1.667818,1.558368,2.029232,2.031066,0.967382,1.998285,1.965096,1.753752,0.906654,2.155938,2.010233,1.916357,2.038817,1.919366,-0.141092,1.77852,2.095228,2.223398,2.248553,2.16639,2.761676,1.66296,2.522482,'\'(-inf-6.266667]\''
2.001369,1.979025,2.042004,1.792317,2.488973,1.280489,1.041963,1.06681,0.936885,1.109612,0.824538,1.196186,1.506247,1.337043,0.414793,1.099239,1.293819,1.164866,-0.459144,1.75043,1.164064,1.416359,1.495101,'\'(14.9-27.8]\'',-0.345446,0.058453,0.067512,0.071103,0.061222,-0.540316,1.591656,-0.054299,-0.629003,1.873183,-1.195724,-1.144573,-1.229644,1.590899,1.37854,1.216901,1.014326,1.3942,1.258604,0.162061,-0.050279,-0.081735,-0.4329,0.037207,-0.951773,0.000131,-0.674133,0.168605,-0.491622,-0.731424,0.958863,-0.316493,1.894564,1.533289,2.069654,2.38757,-0.574303,3.194033,2.613319,2.186105,2.570298,2.436557,2.385369,2.339205,2.237289,2.444155,0.775787,3.535858,-1.323408,1.096953,0.15555,0.122569,0.270521,0.167443,0.019917,-0.415908,-0.517209,-0.607148,-0.65343,-0.659227,-1.388383,-1.295232,-1.157235,-1.235567,-0.947232,-0.351884,-1.135345,0.790762,2.08873,2.126141,2.053437,1.734947,1.626605,1.994947,2.036178,0.956171,1.989951,1.962937,1.748212,0.895832,2.166904,2.015267,1.916745,2.044677,1.925654,-0.151718,1.783062,2.104564,2.241801,2.264939,2.188264,2.789383,1.672898,2.550226,'\'(-inf-6.266667]\''
2.001625,1.978559,2.044758,1.793784,2.481725,1.299009,1.058632,1.092711,0.976766,1.276996,0.819584,1.19554,1.526471,1.367768,0.416461,1.119511,1.207584,1.199468,-0.395583,1.827591,1.235098,1.422011,1.501874,'\'(14.9-27.8]\'',-0.184747,-0.090605,0.110802,0.19874,0.062736,-0.566969,1.593897,-0.063167,-0.631931,1.887901,-1.212108,-1.171858,-1.229644,1.593701,1.377309,1.220319,1.010548,1.397004,1.267003,0.162061,-0.191412,-0.018497,-0.102425,-0.718797,-0.648745,0.683084,-0.462838,0.274217,-0.459836,-0.556103,1.088142,-0.343247,1.855818,1.390232,2.070489,2.397098,-0.492339,3.205216,2.627975,2.195288,2.579716,2.453748,2.409638,2.347459,2.237289,2.451066,0.78144,3.489287,-1.30327,1.041837,0.15555,0.066636,0.222281,0.080309,-0.122186,-0.561775,-0.648054,-0.700385,-0.735893,-1.283425,-1.72696,-1.533661,-1.289327,-1.355916,-0.974318,-0.463345,-1.12064,0.762754,2.094521,2.131045,2.04979,1.629005,1.454499,1.902898,2.042819,0.960431,1.99208,1.959782,1.743213,0.885681,2.178925,2.022035,1.91703,2.052296,1.930294,-0.160185,1.779155,2.1137,2.250389,2.286787,2.186897,2.809812,1.68078,2.58321,'\'(-inf-6.266667]\''
2.007282,1.979515,2.065192,1.82192,2.510764,1.283309,1.037812,1.061216,0.968319,1.277142,0.807631,1.10424,1.517628,1.365724,0.441974,1.109008,1.114707,1.139008,-0.451623,1.53704,1.082305,1.428474,1.514269,'\'(14.9-27.8]\'',-0.632507,-0.137676,0.137997,0.164704,0.114977,-0.594089,1.601472,-0.047402,-0.620218,1.907098,-1.212108,-1.171175,-1.230635,1.600248,1.382761,1.226704,1.01444,1.399341,1.274076,0.227507,-0.191412,-0.018497,-0.191601,-0.051734,-0.951773,0.440746,-0.508772,0.163324,-0.761807,-0.614543,0.869361,-0.111375,1.885603,1.390077,2.079141,2.399339,-0.492339,3.218673,2.642614,2.202469,2.532515,2.377073,2.341076,2.362422,2.237223,2.452654,0.760286,3.600709,-1.325589,1.10762,0.100061,-0.009904,0.116151,-0.022962,-0.243125,-0.629847,-0.699704,-0.771245,-0.79774,-1.549041,-1.734484,-1.502289,-1.284044,-1.345887,-0.982893,-0.496128,-1.066917,0.71101,2.092514,2.125274,2.019414,1.566075,1.238022,2.062973,2.051281,1.002235,1.996727,1.971904,1.74252,0.902863,2.19243,2.02991,1.924637,2.060398,1.936765,-0.148345,1.7654,2.124898,2.274925,2.316281,2.203302,2.821345,1.684342,2.610617,'\'(-inf-6.266667]\''
2.023799,1.998184,2.070348,1.814627,2.534458,1.269186,1.008269,1.02215,0.943216,1.174395,0.809704,1.020401,1.523072,1.344123,0.44984,1.087025,1.123791,1.320944,-0.552165,1.809498,1.265626,1.419887,1.502893,'\'(14.9-27.8]\'',-0.673712,-0.031206,0.189058,0.331484,0.110434,-0.541485,1.602861,-0.072034,-0.623146,1.907738,-1.232589,-1.202553,-1.234598,1.603207,1.381002,1.23219,1.012565,1.400744,1.284023,0.162061,-0.191412,-0.144973,-0.204715,-0.89668,-0.224506,0.115792,-0.15049,0.147482,-0.539302,-0.661296,0.829583,-0.18272,1.894938,1.39255,2.093442,2.404393,-0.492339,3.230553,2.651263,2.203117,2.520267,2.354153,2.342553,2.369286,2.240645,2.454193,0.710291,3.73395,-1.352199,1.19079,0.016827,-0.080556,0.048614,-0.061688,-0.191726,-0.496945,-0.568859,-0.670549,-0.725585,-0.924843,-1.200284,-1.075627,-0.982873,-1.090147,-0.971594,-0.427425,-1.101425,0.811175,2.090017,2.119645,2.03034,1.638067,1.296848,2.170428,2.059661,0.964435,1.999467,1.979508,1.742031,0.909314,2.205372,2.038328,1.929462,2.068859,1.946716,-0.147029,1.765337,2.138817,2.28474,2.326113,2.211504,2.83214,1.692577,2.634555,'\'(-inf-6.266667]\''
2.033103,2.011161,2.087803,1.831484,2.55814,1.259434,0.998727,1.013945,0.914734,1.223974,0.751543,1.063182,1.513368,1.347391,0.485065,1.090973,0.955356,1.160558,-0.55229,2.030871,1.36919,1.416016,1.493917,'\'(14.9-27.8]\'',-0.537736,-0.0525,0.217363,0.339993,0.145261,-0.620274,1.611099,-0.058241,-0.615094,1.911578,-1.224397,-1.184136,-1.241533,1.610542,1.384343,1.236776,1.00873,1.408222,1.28778,0.162061,-0.191412,-0.018497,-0.354216,-0.674326,-1.02248,0.374653,-0.517958,0.358707,-0.586982,-0.415846,1.093114,-0.102457,1.837242,1.337136,2.096084,2.413221,-0.574303,3.253657,2.668224,2.21071,2.548807,2.395264,2.415175,2.371326,2.242852,2.458425,0.693026,3.841127,-1.371108,1.257913,-0.035888,-0.10705,0.01967,-0.058461,-0.152421,-0.393218,-0.479333,-0.599689,-0.674046,-0.513138,-0.824087,-0.799552,-0.787376,-0.924668,-0.955887,-0.389575,-1.161226,0.913714,2.122142,2.159999,2.032816,1.637988,1.228274,2.080957,2.070062,0.967895,2.012128,1.987039,1.751607,0.916438,2.215274,2.048432,1.938531,2.07955,1.950806,-0.149188,1.765718,2.144888,2.292101,2.325021,2.232011,2.839637,1.696205,2.616667,'\'(-inf-6.266667]\''
2.037389,2.016681,2.109614,1.864689,2.586971,1.299937,1.037896,1.053779,0.950057,1.169208,0.82119,1.122506,1.554223,1.366414,0.520526,1.105284,1.368704,1.26975,-0.512375,1.752559,1.2601,1.423603,1.509633,'\'(14.9-27.8]\'',-0.609157,-0.126468,0.144102,0.290639,0.067279,-0.606948,1.621293,-0.05627,-0.62095,1.921176,-1.228493,-1.194368,-1.23658,1.620583,1.398589,1.248467,1.018502,1.41383,1.295738,0.162061,-0.191412,0.107979,0.220183,-0.318559,-0.69925,1.321975,-0.600639,0.284779,-0.428049,-0.415846,1.043392,-0.352165,1.863232,1.388802,2.098632,2.403389,-0.656268,3.259924,2.671169,2.199467,2.541643,2.380347,2.418036,2.370129,2.244029,2.394874,0.518974,3.904211,-1.378965,1.287914,-0.080279,-0.127657,-0.028571,-0.097187,-0.182656,-0.386735,-0.469003,-0.577312,-0.667174,-0.420172,-0.681133,-0.674063,-0.665851,-0.829393,-0.947312,-0.388567,-1.179068,1.043787,2.151938,2.196614,2.039149,1.732782,1.233989,2.111753,2.083625,0.973405,2.056969,1.991255,1.769308,0.911271,2.22574,2.062356,1.9539,2.094056,1.9621,-0.166325,1.782109,2.159065,2.30805,2.343591,2.247049,2.862659,1.711282,2.606609,'\'(-inf-6.266667]\''
2.043758,2.015626,2.087483,1.825991,2.554566,1.29386,1.044825,1.061006,0.946827,1.096338,0.843104,1.154292,1.532274,1.341464,0.434157,1.090728,1.607215,1.167955,-0.581163,1.887724,1.385243,1.492201,1.583084,'\'(14.9-27.8]\'',-0.425109,-0.195954,0.058631,0.212355,-0.014488,-0.647863,1.624797,-0.061689,-0.645841,1.919257,-1.230541,-1.199142,-1.234598,1.624424,1.408086,1.2446,1.028643,1.420374,1.302811,0.162061,-0.332544,-0.018497,-0.188978,-1.119034,-0.951773,0.303053,0.391526,0.231972,-0.602875,-0.427534,1.003613,-0.352165,1.870681,1.52502,2.100178,2.416931,-0.574303,3.276843,2.682813,2.193757,2.547478,2.394173,2.440736,2.36094,2.248464,2.39647,0.481886,3.879761,-1.366805,1.227437,-0.121896,-0.165927,-0.047867,-0.110096,-0.197773,-0.328388,-0.386364,-0.480345,-0.570967,-0.287364,-0.432843,-0.42936,-0.44922,-0.613769,-0.932887,-0.362147,-1.236517,1.111196,2.174611,2.221232,2.078875,1.92528,1.422902,2.143351,2.101055,0.914911,2.103536,1.998825,1.784999,0.925273,2.244223,2.080336,1.972541,2.112577,1.976446,-0.155294,1.804727,2.171036,2.331359,2.357792,2.281226,2.865022,1.714765,2.597194,'\'(-inf-6.266667]\''
2.055112,2.015209,2.083576,1.853558,2.556113,1.3305,1.086276,1.110014,0.997668,1.240577,0.862344,1.211768,1.561798,1.382176,0.460116,1.130738,1.572776,1.078279,-0.440565,1.737659,1.173801,1.48018,1.563751,'\'(14.9-27.8]\'',-0.360555,0.047246,-0.006859,-0.008884,-0.005403,-0.589413,1.628016,-0.049866,-0.615094,1.926936,-1.227264,-1.19505,-1.232617,1.626879,1.411955,1.250985,1.027564,1.427385,1.301706,0.227507,-0.050279,0.171217,0.157235,-0.511266,-1.477022,0.974991,0.584447,0.21613,-0.857167,-0.205461,1.038419,-0.494856,1.90336,1.440545,2.100397,2.423504,-0.656268,3.289132,2.695131,2.198702,2.547362,2.399266,2.447103,2.365807,2.256951,2.39454,0.424044,3.925849,-1.37127,1.225176,-0.121896,-0.162983,-0.044651,-0.097187,-0.19475,-0.37701,-0.448343,-0.532558,-0.625942,-0.274083,-0.545702,-0.5423,-0.523192,-0.694001,-0.937856,-0.410779,-1.199656,1.068472,2.181627,2.2276,2.094228,1.932482,1.281385,2.334182,2.109153,0.939737,2.088649,2.007708,1.78863,0.923378,2.255511,2.088706,1.97923,2.120592,1.992716,-0.14089,1.809778,2.190281,2.339947,2.368716,2.289429,2.845988,1.704609,2.610846,'\'(-inf-6.266667]\''
2.079713,2.038269,2.110191,1.907228,2.612629,1.321859,1.082872,1.104624,0.965438,1.255203,0.811687,1.257314,1.546971,1.400715,0.463876,1.152422,1.014206,1.109331,-0.37039,1.588658,1.045169,1.487424,1.57036,'\'(14.9-27.8]\'',-0.326217,0.040522,0.001466,-0.051429,0.024881,-0.602506,1.631803,-0.047402,-0.618754,1.930135,-1.226855,-1.196414,-1.229644,1.630499,1.410548,1.246669,1.032222,1.428787,1.303032,0.358399,-0.050279,0.234455,-0.196846,-0.318559,-0.507332,0.292038,-0.517958,0.287419,-0.82538,-0.556103,1.19256,-0.28082,2.163734,2.333205,2.153386,2.426549,-0.738233,3.294007,2.707364,2.214065,2.640666,2.53306,2.583489,2.373165,2.260694,2.464723,0.531003,3.649563,-1.295845,0.98499,-0.121896,-0.177702,-0.051083,-0.126232,-0.234055,-0.454806,-0.506879,-0.543746,-0.622506,-0.446734,-0.726276,-0.648965,-0.539043,-0.688987,-0.953723,-0.435678,-1.126914,1.095531,2.129909,2.154839,2.091571,1.792589,1.170794,2.593881,2.107272,0.955113,2.019947,2.014352,1.771672,0.922828,2.262116,2.083967,1.971817,2.117817,1.993295,-0.142745,1.782459,2.199389,2.365711,2.38401,2.322239,2.832464,1.698145,2.639573,'\'(-inf-6.266667]\''
2.104491,2.044672,2.112529,1.888656,2.608537,1.323065,1.07244,1.094477,0.950002,1.181746,0.816557,1.261588,1.562481,1.404473,0.454403,1.13531,1.245984,1.089023,-0.449188,1.692426,1.090124,1.504409,1.585517,'\'(14.9-27.8]\'',-0.566579,0.178372,0.090822,-0.083764,0.16116,-0.589413,1.63679,-0.046417,-0.613629,1.930135,-1.226855,-1.194368,-1.232617,1.63541,1.410196,1.247838,1.033558,1.431124,1.308558,0.292953,-0.191412,0.107979,-0.084065,0.200267,-0.416424,0.567422,-0.986481,0.13164,-0.555195,-0.731424,0.834555,-0.18272,1.917931,1.530546,2.153063,2.427047,-0.738233,3.319241,2.732234,2.232431,2.616228,2.484581,2.534121,2.401682,2.265675,2.47336,0.491585,3.404612,-1.220418,0.765416,-0.121896,-0.168871,-0.047867,-0.142368,-0.267313,-0.496945,-0.506879,-0.484074,-0.536607,-0.592823,-0.824087,-0.648965,-0.454503,-0.563624,-0.993711,-0.484495,-1.081622,0.917512,2.12323,2.140796,2.102197,1.66338,1.012806,2.457313,2.11557,0.946817,2.018278,2.030372,1.771081,0.92885,2.275147,2.093988,1.977703,2.125299,1.998973,-0.125305,1.779218,2.205489,2.369391,2.401488,2.308568,2.827064,1.70214,2.684919,'\'(-inf-6.266667]\''
2.083105,2.038097,2.105739,1.875011,2.578813,1.325982,1.074063,1.097024,0.946394,1.236199,0.791795,1.284555,1.56689,1.416168,0.449473,1.141599,1.172054,1.126291,-0.437791,1.861116,1.188195,1.484894,1.562633,'\'(14.9-27.8]\'',-0.203976,0.110007,-0.001864,0.004731,-0.003889,-0.552006,1.63739,-0.052821,-0.636324,1.931415,-1.231361,-1.199824,-1.235589,1.636417,1.408262,1.249277,1.029353,1.434396,1.297506,0.292953,-0.191412,0.171217,-0.388312,-0.970798,-0.91137,0.308561,-0.444465,0.057712,-0.761807,-0.462598,0.73511,-0.343247,2.48998,3.211063,2.270151,2.426867,-0.656268,3.328479,2.745561,2.243732,2.567583,2.400903,2.449779,2.4088,2.271547,2.481614,0.538714,3.748437,-1.309399,?,-0.121896,-0.177702,-0.035003,-0.11655,-0.224984,-0.461289,-0.458673,-0.450509,-0.498811,-0.406891,-0.741324,-0.561123,-0.40695,-0.508464,-0.996756,-0.477091,-1.039663,0.863394,2.133923,2.150305,2.105693,1.602882,0.966754,2.649787,2.118614,0.928974,1.992455,2.038619,1.766403,0.924784,2.282029,2.095816,1.97716,2.127802,2.004925,-0.124495,1.78303,2.212735,2.380433,2.414597,2.320872,2.810924,1.697459,2.709335,'\'(-inf-6.266667]\''
2.083198,2.030738,2.108877,1.885809,2.612624,1.339501,1.082334,1.105763,0.957272,1.190904,0.823443,1.288222,1.586431,1.417255,0.491367,1.151453,1.242568,1.126307,-0.41274,1.714776,1.172243,1.480835,1.565691,'\'(14.9-27.8]\'',-0.49241,0.023711,0.117462,0.045575,0.139961,-0.518105,1.637832,-0.059226,-0.639984,1.933335,-1.237505,-1.208692,-1.23757,1.637267,1.404393,1.241992,1.025291,1.433461,1.299937,0.227507,-0.191412,0.171217,-0.188978,-0.288912,-0.850764,0.308561,-0.223984,0.055071,-1.079673,-0.45091,0.899195,-0.477019,2.109504,1.980817,2.302859,2.433059,-0.738233,3.35105,2.768697,2.257447,2.625414,2.485491,2.533659,2.433334,2.275081,2.489382,0.533886,3.919041,-1.34577,?,-0.121896,-0.171814,-0.041435,-0.113323,-0.234055,-0.480738,-0.472446,-0.480345,-0.546915,-0.446734,-0.786468,-0.586221,-0.44922,-0.578667,-1.010139,-0.48098,-0.996724,0.768925,2.150713,2.168087,2.106954,1.686899,1.168441,2.921226,2.129427,0.946977,1.995252,2.054202,1.778428,0.92827,2.292611,2.106321,1.990122,2.138121,2.015944,-0.107662,1.796531,2.22167,2.391474,2.427706,2.333176,2.796512,1.693448,2.733736,'\'(-inf-6.266667]\''
2.092593,2.044304,2.121817,?,2.632022,1.334801,1.083807,1.112097,0.96133,1.196059,0.827292,1.301389,1.574291,1.413594,0.472527,1.149703,1.235857,1.17028,-0.432208,?,?,1.479649,1.557143,'\'(14.9-27.8]\'',-0.412747,-0.085001,0.274528,0.222566,0.275483,-0.611624,1.640136,-0.06563,-0.664875,1.934615,-1.242011,-1.208692,-1.248468,1.639974,1.406327,1.234977,1.029751,1.440472,1.297727,0.292953,-0.191412,0.171217,-0.00538,-0.867033,-0.214405,1.046591,-1.032415,-0.026778,-0.730021,-0.415846,0.73511,-0.682137,2.006678,1.649605,2.303799,?,?,3.362868,2.784515,2.266689,2.620503,2.471211,2.518157,2.471398,2.277761,?,?,4.126659,?,?,-0.121896,-0.180646,-0.035003,-0.11655,-0.228008,-0.483979,-0.469003,-0.484074,-0.564095,-0.420172,-0.793992,-0.579946,-0.454503,-0.60374,-1.021599,-0.454062,-1.013978,0.779844,2.169632,2.189251,2.136489,1.746654,1.175836,3.300215,2.136855,0.949924,1.996407,2.075752,1.777212,0.941936,2.304981,2.114597,1.996681,2.144055,2.023575,-0.11171,1.791004,2.234816,2.395155,2.430983,2.333176,?,?,2.757242,'\'(-inf-6.266667]\''
