@relation '2025-08-MD-weka.filters.unsupervised.attribute.Discretize-B3-M-1.0-R25-precision6-weka.filters.unsupervised.attribute.Reorder-R1,2,3,4,5,6,7,8,9,10,11,12,13,14,15,16,17,18,19,20,21,22,23,24,26,27,28,29,30,31,32,33,34,35,36,37,38,39,40,41,42,43,44,45,46,47,48,49,50,51,52,53,54,55,56,57,58,59,60,61,62,63,64,65,66,67,68,69,70,71,72,73,74,75,76,77,78,79,80,81,82,83,84,85,86,87,88,89,90,91,92,93,94,95,96,97,98,99,100,101,102,103,104,105,106,107,108,109,110,111,112,113,114,115,116,117,118,119,120,121,122,123,124,125,126,127,25-weka.filters.unsupervised.attribute.Discretize-B3-M-1.0-R25-precision6-weka.filters.unsupervised.attribute.Discretize-B3-M-1.0-Rlast-precision6-weka.filters.unsupervised.attribute.Discretize-B3-M-1.0-Rlast-precision6-weka.filters.unsupervised.attribute.Discretize-B3-M-1.0-R127-precision6-weka.filters.unsupervised.attribute.Discretize-B3-M-1.0-R127-precision6-weka.filters.unsupervised.attribute.Reorder-R1,2,3,4,5,6,7,8,9,10,11,12,13,14,15,16,17,18,19,20,21,22,23,24,25,26,27,28,29,30,31,32,33,34,35,36,37,38,39,40,41,42,43,44,45,46,47,48,49,50,51,52,53,54,55,56,57,58,59,60,61,62,63,64,65,66,67,68,69,70,71,72,73,74,75,76,77,78,79,80,81,82,83,84,85,86,87,88,89,90,91,92,93,94,95,96,97,98,99,100,101,102,103,104,105,106,107,108,109,110,111,112,113,114,115,116,117,118,119,120,121,122,123,124,125,127,126-weka.filters.unsupervised.attribute.Discretize-B3-M-1.0-R127-precision6-weka.filters.unsupervised.attribute.Discretize-B3-M-1.0-R126-precision6-weka.filters.unsupervised.attribute.Reorder-R1,2,3,4,5,6,7,8,9,10,11,12,13,14,15,16,17,18,19,20,21,22,23,24,25,26,27,28,29,30,31,32,33,34,35,36,37,38,39,40,41,42,43,44,45,46,47,48,49,50,51,52,53,54,55,56,57,58,59,60,61,62,63,64,65,66,67,68,69,70,71,72,73,74,75,76,77,78,79,80,81,82,83,84,85,86,87,88,89,90,91,92,93,94,95,96,97,98,99,100,101,102,103,104,105,106,107,108,109,110,111,112,113,114,115,116,117,118,119,120,121,122,123,124,125,127,126-weka.filters.unsupervised.attribute.Remove-R1-weka.filters.unsupervised.attribute.Remove-R57,93,121-weka.filters.unsupervised.attribute.Standardize-weka.filters.unsupervised.attribute.Remove-R84-86,122-weka.filters.unsupervised.instance.RemoveRange-R1-560-weka.filters.unsupervised.attribute.Remove-V-R102,63,105,115,112,65,114,113,108,109,99,106,69,118,22,62,107,103,60,38,3,5,117,111,1,119'

@attribute CPIMEDSL numeric
@attribute M2SL numeric
@attribute CUSR0000SAS numeric
@attribute CES3000000008 numeric
@attribute DSERRG3M086SBEA numeric
@attribute BOGMBASE numeric
@attribute CES2000000008 numeric
@attribute CES0600000008 numeric
@attribute CUSR0000SA0L5 numeric
@attribute PCEPI numeric
@attribute CPIAUCSL numeric
@attribute CPIULFSL numeric
@attribute REALLN numeric
@attribute INVEST numeric
@attribute CLF16OV numeric
@attribute M1SL numeric
@attribute CUSR0000SA0L2 numeric
@attribute CUSR0000SAC numeric
@attribute BUSINVx numeric
@attribute SRVPRD numeric
@attribute DPCERA3M086SBEA numeric
@attribute RETAILx numeric
@attribute DTCTHFNM numeric
@attribute DNDGRG3M086SBEA numeric
@attribute RPI numeric
@attribute UNRATE {'\'(-inf-6.266667]\'','\'(6.266667-10.533333]\'','\'(10.533333-inf)\''}

@data
0.594903,0.169812,0.618849,0.647547,0.620477,-0.243666,0.493078,0.584353,0.659366,0.668126,0.6556,0.671361,0.661559,0.317622,0.837604,-0.218111,0.678406,0.718752,0.461513,0.83394,0.756829,0.590451,1.194564,0.685217,0.628426,'\'(-inf-6.266667]\''
0.601154,0.175499,0.627786,0.643446,0.629871,-0.240662,0.495262,0.583126,0.692814,0.692393,0.687333,0.706731,0.67353,0.317135,0.843068,-0.217947,0.728859,0.794757,0.470671,0.835577,0.746645,0.59565,1.204707,0.766761,0.620413,'\'(-inf-6.266667]\''
0.610247,0.181187,0.64298,0.65575,0.641555,-0.241066,0.500724,0.592941,0.695292,0.696452,0.690859,0.710268,0.687752,0.318114,0.844535,-0.218377,0.727566,0.774489,0.485243,0.83627,0.753595,0.59645,1.213657,0.745446,0.634968,'\'(-inf-6.266667]\''
0.620477,0.183997,0.652812,0.654382,0.649947,-0.237426,0.498539,0.591714,0.682904,0.691141,0.679106,0.69612,0.701562,0.301241,0.846534,-0.218459,0.706867,0.723819,0.496698,0.84543,0.761217,0.611949,1.219039,0.691412,0.651463,'\'(-inf-6.266667]\''
0.623319,0.188574,0.654599,0.654382,0.651837,-0.23188,0.506186,0.595395,0.681665,0.691141,0.679106,0.694941,0.719471,0.316057,0.845441,-0.218827,0.702986,0.718752,0.51588,0.849868,0.771338,0.612869,1.236596,0.685916,0.660259,'\'(-inf-6.266667]\''
0.625592,0.195692,0.66443,0.65575,0.660744,-0.231245,0.507279,0.597848,0.696531,0.703442,0.69321,0.710268,0.730539,0.32508,0.851186,-0.217762,0.722391,0.742398,0.529433,0.855408,0.784854,0.663919,1.224858,0.714315,0.691158,'\'(-inf-6.266667]\''
0.634685,0.199831,0.668005,0.657117,0.666328,-0.23084,0.510556,0.600302,0.696531,0.704969,0.694385,0.710268,0.746173,0.333212,0.864518,-0.217988,0.719804,0.735642,0.534946,0.862869,0.79033,0.650107,1.195663,0.70523,0.704487,'\'(-inf-6.266667]\''
0.642641,0.202288,0.673368,0.658484,0.672429,-0.227836,0.511648,0.602756,0.700247,0.709913,0.697911,0.714983,0.760373,0.332123,0.869889,-0.217005,0.721097,0.737331,0.55115,0.871399,0.795839,0.657089,1.216455,0.711806,0.715532,'\'(-inf-6.266667]\''
0.649461,0.208598,0.67873,0.662585,0.679932,-0.228356,0.516018,0.607663,0.712635,0.721787,0.709664,0.729131,0.778789,0.356918,0.872012,-0.217373,0.735328,0.762666,0.566294,0.874925,0.800515,0.666051,1.223043,0.741571,0.716886,'\'(-inf-6.266667]\''
0.656281,0.209759,0.684987,0.666686,0.687121,-0.226392,0.533496,0.615024,0.720068,0.728686,0.716716,0.737384,0.794788,0.36678,0.877882,-0.216185,0.741796,0.771111,0.585581,0.877254,0.804935,0.659869,1.225659,0.75091,0.714912,'\'(-inf-6.266667]\''
0.661964,0.216187,0.691243,0.668053,0.695054,-0.226507,0.553159,0.624838,0.726263,0.735035,0.722592,0.7421,0.81421,0.363764,0.88678,-0.218602,0.745677,0.774489,0.600428,0.879961,0.806376,0.669829,1.24819,0.758566,0.718101,'\'(-inf-6.266667]\''
0.667079,0.22322,0.697499,0.668053,0.699321,-0.227027,0.556436,0.626065,0.73989,0.743856,0.735521,0.756248,0.829477,0.367992,0.887499,-0.219217,0.762495,0.801513,0.61176,0.886289,0.821269,0.675687,1.275063,0.785472,0.715982,'\'(-inf-6.266667]\''
0.673898,0.228504,0.703756,0.674889,0.704991,-0.228067,0.562991,0.634653,0.7498,0.752006,0.746098,0.766859,0.835104,0.373709,0.898083,-0.219217,0.772844,0.815025,0.624672,0.892112,0.812461,0.682841,1.307579,0.804468,0.713503,'\'(-inf-6.266667]\''
0.679581,0.233098,0.710906,0.676256,0.711321,-0.227663,0.569545,0.637107,0.737412,0.745199,0.734345,0.752711,0.850712,0.367855,0.896397,-0.220855,0.753439,0.771111,0.632684,0.897432,0.82886,0.672155,1.339031,0.757073,0.728779,'\'(-inf-6.266667]\''
0.684696,0.24141,0.713587,0.685826,0.715502,-0.228009,0.578284,0.648148,0.725024,0.739094,0.723768,0.739742,0.93559,0.39027,0.908231,-0.219647,0.731447,0.735642,0.640229,0.900611,0.840358,0.671083,1.354845,0.713839,0.74269,'\'(-inf-6.266667]\''
0.689243,0.247384,0.719843,0.68856,0.720371,-0.223965,0.5903,0.654282,0.726263,0.73998,0.724943,0.740921,0.95175,0.391725,0.919627,-0.219544,0.728859,0.727197,0.646694,0.908921,0.841318,0.676732,1.363545,0.704563,0.755889,'\'(-inf-6.266667]\''
0.691516,0.254602,0.726099,0.69813,0.725497,-0.218246,0.597947,0.665324,0.73989,0.749167,0.737871,0.755069,0.971772,0.403669,0.929806,-0.220405,0.745677,0.750843,0.651167,0.914902,0.85682,0.698947,1.387611,0.734391,0.771306,'\'(-inf-6.266667]\''
0.705036,0.261013,0.733375,0.699497,0.73744,-0.220383,0.609964,0.670231,0.742912,0.757836,0.741832,0.757392,0.984887,0.411387,0.94267,-0.21936,0.747863,0.749745,0.654658,0.920789,0.862136,0.695942,1.38191,0.736043,0.776043,'\'(-inf-6.266667]\''
0.715101,0.263722,0.741213,0.704965,0.744285,-0.222116,0.613241,0.672685,0.752141,0.765925,0.751105,0.765586,1.000653,0.415925,0.937643,-0.221142,0.757863,0.762091,0.664,0.926801,0.861464,0.699877,1.37374,0.750592,0.787585,'\'(-inf-6.266667]\''
0.718221,0.269427,0.74704,0.7118,0.749898,-0.221597,0.623072,0.682499,0.765422,0.775479,0.763587,0.778814,0.967248,0.420963,0.939766,-0.220425,0.774992,0.787224,0.666899,0.932121,0.864474,0.714875,1.382191,0.780453,0.797607,'\'(-inf-6.266667]\''
0.726297,0.281626,0.752152,0.725471,0.755511,-0.220383,0.633996,0.693541,0.772619,0.781645,0.770827,0.786277,0.982895,0.426017,0.920533,-0.21807,0.783129,0.798101,0.679445,0.935332,0.867069,0.710417,1.401612,0.793636,0.801856,'\'(-inf-6.266667]\''
0.732952,0.283965,0.757345,0.73094,0.759807,-0.218823,0.648197,0.703356,0.782914,0.789276,0.780828,0.79644,0.993943,0.422878,0.92787,-0.217476,0.796091,0.816866,0.690568,0.940903,0.87104,0.734053,1.421682,0.816476,0.803247,'\'(-inf-6.266667]\''
0.73876,0.289552,0.764039,0.737775,0.766365,-0.217957,0.652567,0.70949,0.78855,0.794862,0.786458,0.801427,1.003856,0.431081,0.939454,-0.220077,0.801201,0.820412,0.700263,0.943327,0.871168,0.719155,1.446247,0.819938,0.80219,'\'(-inf-6.266667]\''
0.751297,0.294751,0.767793,0.737775,0.771034,-0.216975,0.655844,0.710717,0.792193,0.798891,0.790795,0.805164,1.014774,0.439994,0.93986,-0.21934,0.805354,0.825294,0.704437,0.943988,0.879399,0.727182,1.476959,0.827467,0.804041,'\'(-inf-6.266667]\''
0.760714,0.307556,0.771726,0.745978,0.777248,-0.21657,0.658029,0.715624,0.79223,0.800692,0.791547,0.804528,1.02746,0.4514,0.930337,-0.218418,0.803413,0.819551,0.710428,0.946475,0.890833,0.737142,1.523826,0.820828,0.803869,'\'(-inf-6.266667]\''
0.767278,0.310619,0.778366,0.748712,0.785783,-0.217841,0.665676,0.720531,0.802908,0.810887,0.80189,0.814691,1.045965,0.46645,0.9511,-0.218541,0.816441,0.836627,0.724476,0.951449,0.893139,0.744991,1.541591,0.841444,0.807505,'\'(-inf-6.266667]\''
0.777575,0.31316,0.78557,0.748712,0.793172,-0.216917,0.668953,0.721758,0.810255,0.818945,0.809447,0.82226,1.077204,0.471582,0.943888,-0.217783,0.825354,0.845173,0.730215,0.955069,0.895285,0.756195,1.558647,0.853674,0.80415,'\'(-inf-6.266667]\''
0.785571,0.317434,0.792398,0.756915,0.799272,-0.213855,0.679877,0.730346,0.830559,0.833078,0.828769,0.843199,1.093781,0.477654,0.964245,-0.21934,0.85159,0.887381,0.743832,0.959979,0.900986,0.774244,1.562531,0.902181,0.802401,'\'(-inf-6.266667]\''
0.792153,0.322549,0.798905,0.756915,0.805315,-0.212179,0.691893,0.737707,0.837806,0.839274,0.83595,0.850862,1.100716,0.47659,0.966837,-0.219012,0.859274,0.89564,0.762028,0.964512,0.899256,0.75226,1.575136,0.91492,0.813863,'\'(-inf-6.266667]\''
0.80099,0.328203,0.805233,0.766484,0.810212,-0.215993,0.698447,0.747521,0.846354,0.846051,0.844518,0.858419,1.109291,0.455381,0.971364,-0.218131,0.869559,0.908595,0.778223,0.965299,0.898808,0.756435,1.57451,0.928897,0.817013,'\'(-inf-6.266667]\''
0.802621,0.342741,0.810354,0.776054,0.815167,-0.216628,0.710464,0.754882,0.852758,0.851423,0.850547,0.863961,1.118156,0.461908,0.958563,-0.217578,0.877049,0.916364,0.787945,0.964827,0.88936,0.739493,1.564295,0.939221,0.819811,'\'(-inf-6.266667]\''
0.807071,0.353864,0.820114,0.782889,0.822327,-0.214606,0.719203,0.76347,0.862099,0.859145,0.859491,0.873593,1.128419,0.460547,0.966525,-0.215878,0.887179,0.924674,0.789332,0.965142,0.89615,0.744918,1.559341,0.951038,0.823018,'\'(-inf-6.266667]\''
0.810134,0.361015,0.826111,0.784257,0.827081,-0.216224,0.729034,0.764697,0.868132,0.864151,0.865297,0.876882,1.13567,0.452378,0.962185,-0.215325,0.896441,0.929505,0.798346,0.962624,0.90057,0.743099,1.555969,0.964126,0.815397,'\'(-inf-6.266667]\''
0.813464,0.363152,0.835826,0.791092,0.835816,-0.213624,0.738866,0.773285,0.884002,0.875781,0.880177,0.892539,1.129977,0.458024,0.978858,-0.214915,0.918045,0.953252,0.802353,0.959192,0.905662,0.76107,1.561965,0.992398,0.92945,'\'(-inf-6.266667]\''
0.819221,0.366299,0.846211,0.800662,0.844579,-0.210446,0.747605,0.7831,0.912259,0.89553,0.90668,0.920929,1.122513,0.463891,0.97917,-0.212621,0.956597,1.009023,0.815939,0.958091,0.900602,0.764577,1.54518,1.057487,0.86208,'\'(-inf-6.266667]\''
0.821978,0.374258,0.857249,0.807497,0.851796,-0.206518,0.754159,0.791687,0.93182,0.908289,0.924932,0.93819,1.118055,0.454367,0.984041,-0.209242,0.982574,1.040083,0.828656,0.955761,0.887438,0.757616,1.546993,1.092684,0.817954,'\'(-inf-6.266667]\''
0.826643,0.376715,0.861593,0.807497,0.854488,-0.206171,0.770545,0.802729,0.927286,0.906061,0.921101,0.931611,1.118634,0.442133,0.989411,-0.212048,0.974863,1.020981,0.83341,0.950095,0.887118,0.742028,1.542733,1.075117,0.80101,'\'(-inf-6.266667]\''
0.831554,0.387921,0.861789,0.810231,0.855806,-0.170294,0.779284,0.807636,0.92928,0.90835,0.923298,0.9318,1.139603,0.461557,0.987195,-0.200865,0.975627,1.026825,0.818901,0.940589,0.869054,0.712659,1.524829,1.085632,0.802871,'\'(-inf-6.266667]\''
0.835469,0.405186,0.862951,0.821168,0.851395,-0.039322,0.782562,0.816224,0.904962,0.890158,0.901179,0.904223,1.228801,0.541923,0.996749,-0.198448,0.939857,0.962491,0.798428,0.932404,0.864891,0.645488,1.484944,1.013935,0.820991,'\'(6.266667-10.533333]\''
0.840749,0.413935,0.863925,0.828004,0.849792,0.137407,0.801132,0.826039,0.855571,0.857863,0.856024,0.850744,1.229846,0.50264,0.989349,-0.190091,0.867217,0.832759,0.775657,0.917326,0.856628,0.574214,1.452413,0.866317,0.840166,'\'(6.266667-10.533333]\''
0.848074,0.443837,0.865418,0.833472,0.849792,0.266877,0.818611,0.835853,0.832603,0.842754,0.835398,0.826657,1.225414,0.47068,0.989849,-0.172251,0.83507,0.771719,0.730597,0.904924,0.848813,0.533814,1.419085,0.79713,0.822665,'\'(6.266667-10.533333]\''
0.854189,0.458039,0.869574,0.836206,0.84793,0.293221,0.809871,0.834626,0.838921,0.843059,0.841686,0.833696,1.215662,0.49957,0.975954,-0.176122,0.842495,0.782038,0.705382,0.894379,0.861015,0.560048,1.348303,0.806787,0.797496,'\'(6.266667-10.533333]\''
0.860037,0.46312,0.871388,0.845776,0.846899,0.206388,0.810964,0.840761,0.848274,0.847882,0.850759,0.844826,1.229168,0.51088,0.986195,-0.179317,0.855923,0.804553,0.675546,0.880308,0.849966,0.552674,1.302054,0.834297,0.766715,'\'(6.266667-10.533333]\''
0.864879,0.474411,0.872175,0.851244,0.844894,0.255842,0.832812,0.849348,0.845202,0.844921,0.848291,0.842798,1.229288,0.523218,0.97355,-0.176921,0.850697,0.797155,0.646828,0.865387,0.838884,0.522668,1.275624,0.831311,0.760337,'\'(6.266667-10.533333]\''
0.872677,0.475202,0.871764,0.856713,0.846384,0.317024,0.828442,0.849348,0.847295,0.848767,0.850806,0.846382,1.237656,0.517553,0.98529,-0.170223,0.853478,0.804553,0.62042,0.854747,0.834913,0.531494,1.252396,0.844081,0.766284,'\'(6.266667-10.533333]\''
0.879962,0.484978,0.870745,0.853978,0.847472,0.329676,0.837181,0.851802,0.850677,0.851575,0.854485,0.851369,1.259097,0.536182,0.992721,-0.169015,0.858847,0.816393,0.599087,0.851096,0.837347,0.545541,1.234213,0.855644,0.800922,'\'(6.266667-10.533333]\''
0.884611,0.486661,0.871656,0.85808,0.850909,0.276872,0.839366,0.854256,0.87284,0.867601,0.875264,0.875633,1.248935,0.568237,0.991753,-0.160555,0.8919,0.87343,0.57444,0.843982,0.838084,0.572798,1.200188,0.922353,0.755277,'\'(6.266667-10.533333]\''
0.889294,0.487385,0.872202,0.874485,0.854202,0.271036,0.843736,0.862844,0.871638,0.867906,0.874512,0.875574,1.236598,0.578892,0.985071,-0.159798,0.892508,0.870018,0.551687,0.837686,0.846987,0.580339,1.189056,0.918192,0.745263,'\'(6.266667-10.533333]\''
0.895489,0.4873,0.87701,0.878586,0.859558,0.292528,0.838274,0.861617,0.880285,0.875781,0.882962,0.885454,1.222618,0.595975,0.978983,-0.16031,0.903712,0.884814,0.527968,0.835734,0.871072,0.611254,1.177492,0.942906,0.740464,'\'(6.266667-10.533333]\''
0.902695,0.487048,0.879137,0.89089,0.862336,0.344755,0.821888,0.86039,0.885005,0.880176,0.887851,0.891396,1.195259,0.598339,0.963996,-0.159306,0.911849,0.894779,0.519055,0.831863,0.846122,0.566376,1.15185,0.950403,0.747088,'\'(6.266667-10.533333]\''
0.907991,0.491473,0.883499,0.886789,0.873276,0.422807,0.866676,0.872658,0.892822,0.890524,0.895467,0.899908,1.181624,0.596375,0.962653,-0.156684,0.922496,0.908696,0.530794,0.830131,0.849165,0.585173,1.083489,0.955803,0.738977,'\'(6.266667-10.533333]\''
0.914578,0.496387,0.885304,0.89089,0.877486,0.473821,0.865584,0.876339,0.901518,0.897361,0.903988,0.909599,1.217925,0.60501,0.965588,-0.155599,0.937955,0.929032,0.544846,0.831453,0.844873,0.599418,1.051764,0.972734,0.745461,'\'(6.266667-10.533333]\''
0.918335,0.495579,0.885948,0.89089,0.880121,0.474745,0.868861,0.876339,0.902658,0.898949,0.905316,0.910531,1.2014,0.621428,0.94164,-0.153591,0.939986,0.931667,0.541825,0.825976,0.86124,0.606812,1.030341,0.97391,0.756609,'\'(6.266667-10.533333]\''
0.927604,0.489774,0.881908,0.893624,0.885276,0.45672,0.879785,0.881246,0.903686,0.904962,0.906973,0.911297,1.191076,0.621119,0.953286,-0.157299,0.948615,0.944672,0.545034,0.828589,0.856307,0.608678,1.030515,0.985854,0.767987,'\'(6.266667-10.533333]\''
0.936504,0.49812,0.883132,0.899093,0.888254,0.526163,0.885247,0.884926,0.900304,0.904901,0.904541,0.908349,1.169974,0.623674,0.959843,-0.152158,0.945031,0.935298,0.556829,0.828054,0.866364,0.611223,1.004527,0.979215,0.768017,'\'(6.266667-10.533333]\''
0.944483,0.497464,0.886457,0.897725,0.893953,0.505596,0.888524,0.88738,0.900565,0.908777,0.905387,0.908515,1.160593,0.616789,0.967961,-0.149679,0.946765,0.93219,0.565696,0.831705,0.879271,0.649862,0.97689,0.979088,0.777911,'\'(6.266667-10.533333]\''
0.949467,0.502747,0.889406,0.903194,0.897934,0.467928,0.883062,0.891061,0.900775,0.910273,0.905974,0.908786,1.165942,0.614622,0.988818,-0.152322,0.947438,0.927748,0.572739,0.837906,0.884812,0.66499,0.961456,0.976896,0.800309,'\'(6.266667-10.533333]\''
0.952337,0.511868,0.89173,0.914131,0.902431,0.466715,0.887431,0.894741,0.899103,0.911158,0.904646,0.907017,1.158087,0.606743,0.972239,-0.150048,0.944527,0.919185,0.578769,0.853992,0.89157,0.649256,0.945073,0.968128,0.82135,'\'(6.266667-10.533333]\''
0.958554,0.515082,0.894018,0.912764,0.904579,0.460995,0.893986,0.898422,0.897418,0.909998,0.903577,0.905862,1.148267,0.6008,0.957408,-0.145644,0.942004,0.911787,0.592588,0.849144,0.898199,0.647469,0.933414,0.959107,0.823995,'\'(6.266667-10.533333]\''
0.958185,0.517,0.89703,0.922333,0.906669,0.456315,0.898355,0.904556,0.902633,0.912349,0.908349,0.911509,1.136044,0.638353,0.959749,-0.147201,0.948718,0.91959,0.609715,0.845682,0.905662,0.653196,0.927775,0.969081,0.829851,'\'(6.266667-10.533333]\''
0.963504,0.525144,0.898791,0.922333,0.909419,0.455969,0.903817,0.909463,0.906251,0.916134,0.912086,0.915388,1.132759,0.661819,0.972083,-0.142142,0.954501,0.926988,0.626622,0.845241,0.912292,0.661432,0.920299,0.976356,0.839919,'\'(6.266667-10.533333]\''
0.976172,0.53031,0.900239,0.931903,0.910765,0.437192,0.901633,0.913144,0.909682,0.918881,0.916223,0.918807,1.12493,0.678342,0.968617,-0.138557,0.960206,0.936345,0.647704,0.8431,0.914886,0.677062,0.900676,0.986394,0.841622,'\'(6.266667-10.533333]\''
0.979798,0.53869,0.901946,0.93327,0.916378,0.437481,0.919111,0.921731,0.919073,0.927702,0.925155,0.928628,1.116699,0.697257,0.958001,-0.135649,0.973415,0.959214,0.671232,0.851379,0.9219,0.698153,0.836868,1.011045,0.843723,'\'(6.266667-10.533333]\''
0.983259,0.542156,0.90494,0.938738,0.919614,0.444068,0.925665,0.927866,0.925874,0.933227,0.931678,0.935419,1.11494,0.70642,0.9733,-0.125817,0.981992,0.972051,0.686657,0.854621,0.928882,0.715058,0.828931,1.026864,0.847249,'\'(6.266667-10.533333]\''
0.988822,0.54781,0.907827,0.94284,0.921504,0.46943,0.924573,0.929092,0.936651,0.939515,0.942044,0.946961,1.108908,0.686963,0.958469,-0.124117,0.996558,0.996558,0.709815,0.85821,0.932533,0.728274,1.3722,1.054787,0.863996,'\'(6.266667-10.533333]\''
0.991994,0.551562,0.911634,0.956511,0.926344,0.487282,0.93222,0.93768,0.945521,0.947879,0.950448,0.954389,1.103408,0.686399,0.946386,-0.122151,1.007865,1.013397,0.726335,0.858745,0.93564,0.740894,1.358367,1.075371,0.899822,'\'(6.266667-10.533333]\''
1.000211,0.562298,0.916478,0.959245,0.931184,0.581857,0.930035,0.940134,0.953896,0.955662,0.958804,0.962159,1.084419,0.682246,0.944856,-0.117276,1.019262,1.028294,0.739948,0.863876,0.934871,0.756994,1.339141,1.093987,0.907956,'\'(6.266667-10.533333]\''
1.004599,0.572057,0.920169,0.956511,0.936798,0.687986,0.926758,0.93768,0.968167,0.966926,0.972297,0.974656,1.067451,0.690406,0.949914,-0.111869,1.038965,1.06101,0.763726,0.868975,0.944447,0.774239,1.334936,1.131598,0.901575,'\'(6.266667-10.533333]\''
1.012618,0.582725,0.923307,0.957878,0.942497,0.746511,0.938774,0.943814,0.980865,0.978861,0.984602,0.987354,1.056885,0.698682,0.955128,-0.111767,1.05674,1.090128,0.782638,0.877286,0.941149,0.784926,1.313452,1.16581,0.897105,'\'(6.266667-10.533333]\''
1.018414,0.594891,0.926837,0.960612,0.948855,0.787299,0.936589,0.946268,0.989462,0.987438,0.992982,0.995465,1.049689,0.694716,0.95313,-0.102631,1.068447,1.107289,0.808455,0.879112,0.937946,0.78328,1.311949,1.183218,0.894222,'\'(6.266667-10.533333]\''
1.022364,0.607343,0.930626,0.957878,0.951031,0.834268,0.939866,0.947495,0.98914,0.986858,0.992982,0.994404,1.04582,0.690234,0.948977,-0.098166,1.065808,1.100296,0.817243,0.885124,0.944383,0.799385,1.313374,1.17048,0.906636,'\'(6.266667-10.533333]\''
1.028746,0.634602,0.936686,0.961979,0.955614,0.85524,0.944236,0.952402,0.996127,0.991681,0.999904,1.000641,1.042934,0.691652,0.947166,-0.091489,1.073156,1.108336,0.827658,0.885533,0.94922,0.798627,1.313261,1.177881,0.918622,'\'(6.266667-10.533333]\''
1.033566,0.665968,0.943193,0.957878,0.96137,0.839584,0.963899,0.957309,1.004799,0.998365,1.008261,1.00821,1.040204,0.704961,0.961904,-0.067033,1.083583,1.120091,0.838071,0.888744,0.947522,0.800812,1.316475,1.191064,0.917175,'\'(6.266667-10.533333]\''
1.038197,0.669367,0.947063,0.957878,0.964692,0.828029,0.964991,0.958536,1.010671,1.002364,1.014032,1.012961,1.038143,0.713267,0.973488,-0.066091,1.090789,1.129313,0.83046,0.894284,0.952102,0.822666,1.319086,1.204915,0.913504,'\'(6.266667-10.533333]\''
1.048802,0.674886,0.950611,0.967447,0.965093,0.828087,0.958437,0.962217,1.011736,1.002425,1.01583,1.014635,1.043502,0.716986,0.96818,-0.06435,1.090931,1.127911,0.850481,0.900171,0.95713,0.833979,1.316446,1.203326,0.914465,'\'(6.266667-10.533333]\''
1.058367,0.683585,0.953372,0.96608,0.970277,0.809368,0.956252,0.962217,1.016295,1.008255,1.020754,1.019953,1.047631,0.725684,0.973394,-0.053392,1.096339,1.136593,0.860524,0.904452,0.952422,0.840329,1.326292,1.214476,0.911528,'\'(6.266667-10.533333]\''
1.066772,0.691595,0.959039,0.970182,0.975289,0.817572,0.961714,0.967124,1.016283,1.009903,1.021389,1.019882,1.041834,0.730488,0.969241,-0.056731,1.094605,1.127709,0.873848,0.908984,0.953671,0.843271,1.34014,1.20501,0.936718,'\'(6.266667-10.533333]\''
1.073387,0.703895,0.963302,0.974283,0.983165,0.82982,0.954067,0.965897,1.023666,1.019671,1.028664,1.02718,1.051219,0.752749,0.981293,-0.049337,1.103985,1.141136,0.88338,0.918271,0.964433,0.861801,1.333206,1.22245,0.944237,'\'(6.266667-10.533333]\''
1.076206,0.712595,0.964142,0.971549,0.987489,0.860786,0.961714,0.972031,1.02965,1.026081,1.034388,1.033994,1.06706,0.779402,0.990348,-0.048251,1.110608,1.156641,0.901674,0.925636,0.981375,0.886775,1.328403,1.239921,0.958474,'\'(6.266667-10.533333]\''
1.083975,0.719999,0.968861,0.972916,0.991814,0.838139,0.974823,0.976939,1.035076,1.031576,1.040006,1.039677,1.06976,0.788967,0.992784,-0.044011,1.116637,1.164022,0.909826,0.931995,0.977692,0.894028,1.330207,1.254534,0.966945,'\'(6.266667-10.533333]\''
1.090897,0.729018,0.973714,0.983852,0.997112,0.829242,0.967176,0.983073,1.039337,1.03536,1.044472,1.044028,1.067901,0.798523,0.986414,-0.042065,1.120582,1.167468,0.921907,0.934073,0.980286,0.885536,1.339604,1.257266,0.977534,'\'(6.266667-10.533333]\''
1.098791,0.736287,0.97602,0.97565,1.000291,0.815781,0.974823,0.976939,1.032561,1.032125,1.038901,1.037178,1.067161,0.801754,0.996437,-0.038194,1.109935,1.146237,0.928232,0.937409,0.980479,0.881894,1.325758,1.229883,0.977079,'\'(6.266667-10.533333]\''
1.112572,0.748066,0.98132,0.982485,1.004759,0.81711,0.977008,0.983073,1.028931,1.03066,1.03668,1.033711,1.061596,0.804215,1.003212,-0.034282,1.104657,1.129803,0.936408,0.939141,0.977532,0.863735,1.332321,1.210378,0.975809,'\'(6.266667-10.533333]\''
1.122319,0.756933,0.985217,0.983852,1.007852,0.833864,0.986839,0.98798,1.028906,1.031698,1.037455,1.034301,1.058618,0.827169,0.998997,-0.026151,1.104114,1.124145,0.955157,0.942572,0.983425,0.873063,1.333724,1.206058,0.957449,'\'(6.266667-10.533333]\''
1.12545,0.76883,0.991286,0.978384,1.012119,0.835539,0.992301,0.9843,1.045643,1.041374,1.053063,1.05175,1.059475,0.836507,0.993221,-0.018142,1.125757,1.15833,0.96382,0.94786,0.984002,0.898344,1.350612,1.241224,0.951151,'\'(6.266667-10.533333]\''
1.130554,0.782325,0.996827,0.979751,1.015928,0.803302,0.997763,0.98798,1.059245,1.050165,1.065956,1.066476,1.061588,0.847651,1.005616,-0.011485,1.14273,1.185168,0.982495,0.953432,0.987973,0.914842,1.3575,1.274261,0.972365,'\'(6.266667-10.533333]\''
1.13406,0.793464,1.001751,0.983852,1.023489,0.813066,0.994486,0.990434,1.066913,1.058742,1.073278,1.074163,1.059782,0.852151,1.017918,-0.004624,1.151074,1.196941,0.983255,0.95787,0.987781,0.913865,1.36585,1.290175,0.991526,'\'(6.266667-10.533333]\''
1.136555,0.805075,1.006587,0.987954,1.027928,0.833286,1.00104,0.996568,1.06171,1.056758,1.068707,1.068055,1.076204,0.866719,1.011174,-0.000302,1.141967,1.173987,0.992269,0.962624,1.000079,0.925435,1.376888,1.263682,1.03052,'\'(6.266667-10.533333]\''
1.14117,0.825705,1.012432,0.987954,1.031909,0.850098,1.00104,0.999022,1.060942,1.0563,1.068377,1.066865,1.073392,0.887796,1.020229,0.003692,1.139263,1.161539,1.002211,0.968762,1.001232,0.932672,1.386823,1.247513,1.102583,'\'(6.266667-10.533333]\''
1.145676,0.829608,1.018545,0.992055,1.037923,0.888113,1.00541,1.003929,1.066405,1.061825,1.07376,1.072488,1.078915,0.884629,1.024444,0.006969,1.145059,1.165846,1.018945,0.97298,1.013851,0.950131,1.382929,1.25285,0.954078,'\'(6.266667-10.533333]\''
1.148444,0.832806,1.02422,1.001625,1.042964,0.947966,1.007595,1.01129,1.082275,1.072172,1.088546,1.089772,1.075116,0.882229,1.010362,0.005372,1.164994,1.198157,1.022126,0.980314,1.013371,0.974609,1.373633,1.286935,0.948449,'\'(6.266667-10.533333]\''
1.1569,0.842279,1.028251,0.998891,1.04766,0.999789,1.004317,1.010063,1.073145,1.068326,1.080847,1.080376,1.072447,0.881273,1.000777,0.006887,1.150751,1.167518,1.021589,0.984123,1.017022,0.95948,1.379046,1.255741,0.958317,'\'(6.266667-10.533333]\''
1.156537,0.846906,1.030629,1.002992,1.050954,1.044101,1.011964,1.017424,1.066963,1.065366,1.075147,1.072877,1.074794,0.90224,1.012923,0.012745,1.139366,1.145967,1.02758,0.990167,1.017663,0.94907,1.382708,1.233187,0.96987,'\'(6.266667-10.533333]\''
1.152507,0.852678,1.034937,1.002992,1.056682,1.104879,1.00541,1.018651,1.068536,1.067502,1.076275,1.074575,1.070659,0.895664,1.017356,0.016555,1.138125,1.140917,1.022259,0.995991,1.025798,0.961853,1.398808,1.224133,0.98358,'\'(6.266667-10.533333]\''
1.163703,0.86237,1.03928,1.00846,1.062324,1.153755,1.004317,1.021105,1.074619,1.073973,1.082763,1.081142,1.070654,0.88749,1.024007,0.016043,1.145434,1.15176,1.02605,1.000744,1.025221,0.968353,1.410276,1.236173,0.983603,'\'(6.266667-10.533333]\''
1.167806,0.868966,1.045545,1.007093,1.066734,1.205404,1.009779,1.019878,1.080082,1.077606,1.088111,1.086978,1.065565,0.873105,1.019323,0.020406,1.151462,1.154986,1.032523,1.004804,1.028744,0.980618,1.420603,1.241382,0.977643,'\'(6.266667-10.533333]\''
1.180082,0.878743,1.050917,1.013929,1.070915,1.267799,1.004317,1.022331,1.086127,1.08194,1.094645,1.094099,1.060049,0.866196,1.019511,0.022249,1.158409,1.163752,1.044305,1.011163,1.033068,0.977603,1.430209,1.252564,0.982595,'\'(6.266667-10.533333]\''
1.186458,0.888906,1.056753,1.01803,1.075784,1.31864,0.997763,1.023558,1.086697,1.083222,1.09568,1.095172,1.059775,0.859811,1.022071,0.029254,1.157672,1.155408,1.058543,1.015066,1.041683,0.979448,1.441597,1.241922,0.994368,'\'(6.266667-10.533333]\''
1.188141,0.909805,1.059971,1.019397,1.081942,1.377915,1.009779,1.028466,1.088147,1.087099,1.097149,1.096445,1.058245,0.862997,0.990411,0.038614,1.158086,1.153635,1.072313,1.020607,1.050971,0.986528,1.449562,1.240429,0.984644,'\'(6.266667-10.533333]\''
1.187567,0.911269,1.065119,1.026232,1.087899,1.432858,1.015241,1.0346,1.093709,1.091464,1.102214,1.101975,1.061569,0.871732,1.008895,0.040171,1.161786,1.157959,1.087002,1.027595,1.062822,0.992601,1.441942,1.242431,0.991963,'\'(6.266667-10.533333]\''
1.188345,0.92219,1.070115,1.033068,1.093197,1.451865,1.026165,1.039507,1.101576,1.096592,1.109489,1.110004,1.062622,0.880266,1.006303,0.047422,1.169302,1.169866,1.10037,1.030239,1.065448,1.004364,1.453819,1.253994,0.998416,'\'(6.266667-10.533333]\''
1.196114,0.933935,1.077604,1.033068,1.098867,1.45822,1.030535,1.043188,1.108203,1.102696,1.116177,1.117113,1.064781,0.885862,1.011611,0.055594,1.176275,1.175254,1.107124,1.034394,1.055872,0.987375,1.447796,1.267145,1.013105,'\'(6.266667-10.533333]\''
1.202638,0.944973,1.082958,1.035802,1.102104,1.518824,1.065491,1.056683,1.110916,1.104101,1.119221,1.118952,1.070529,0.898802,1.015702,0.058892,1.17797,1.173751,1.120561,1.03751,1.069003,1.014418,1.434825,1.266923,1.029244,'\'(6.266667-10.533333]\''
1.208742,0.951014,1.093817,1.042638,1.110581,1.549155,1.040366,1.053002,1.11654,1.108832,1.124874,1.123586,1.079308,0.914982,1.032718,0.062804,1.182614,1.168701,1.13185,1.044625,1.085593,1.037902,1.440924,1.263841,1.04438,'\'(6.266667-10.533333]\''
1.214703,0.958569,1.095917,1.037169,1.114533,1.575038,1.053475,1.054229,1.121644,1.114082,1.130045,1.128125,1.086724,0.920393,1.012142,0.067904,1.187375,1.179493,1.141204,1.052368,1.090365,1.060457,1.448001,1.276579,1.053107,'\'(-inf-6.266667]\''
1.220398,0.969422,1.103961,1.041271,1.12155,1.563945,1.054568,1.05791,1.126897,1.118966,1.135334,1.132098,1.091205,0.932089,1.021977,0.070178,1.191514,1.179274,1.15347,1.05794,1.096707,1.064151,1.455335,1.280677,1.06127,'\'(6.266667-10.533333]\''
1.225655,0.978711,1.107813,1.045372,1.124815,1.585437,1.052383,1.060363,1.130428,1.122201,1.139013,1.135918,1.101037,0.944246,1.022696,0.076711,1.194994,1.18277,1.157754,1.066817,1.106988,1.069649,1.462399,1.286713,1.072182,'\'(-inf-6.266667]\''
1.229502,0.987915,1.11339,1.05084,1.1308,1.608777,1.054568,1.067724,1.1335,1.126414,1.142151,1.138465,1.103975,0.962855,1.032063,0.080828,1.196055,1.181013,1.165998,1.071727,1.113361,1.073693,1.474361,1.285887,1.080165,'\'(-inf-6.266667]\''
1.230508,0.99197,1.115634,1.053574,1.133521,1.658405,1.061122,1.071405,1.13293,1.126047,1.141704,1.13692,1.11016,0.964321,1.035903,0.070526,1.19229,1.175355,1.174726,1.076292,1.133379,1.090938,1.487287,1.276135,1.095104,'\'(-inf-6.266667]\''
1.236475,0.998903,1.119244,1.052207,1.137301,1.643499,1.069861,1.075085,1.132596,1.127085,1.141904,1.135883,1.112253,0.979772,1.033093,0.085724,1.189419,1.168717,1.177941,1.083784,1.134243,1.08472,1.49711,1.269623,1.10543,'\'(-inf-6.266667]\''
1.240266,1.011321,1.123758,1.059043,1.139907,1.615941,1.066584,1.076312,1.131629,1.1262,1.141352,1.134515,1.113143,0.983103,1.044864,0.089656,1.185434,1.158263,1.183037,1.089764,1.153268,1.093676,1.497498,1.257234,1.120564,'\'(-inf-6.266667]\''
1.249643,1.01817,1.128325,1.059043,1.145177,1.517091,1.073138,1.076312,1.125014,1.123361,1.136098,1.127441,1.116795,0.989841,1.047268,0.091254,1.173687,1.133553,1.190628,1.097728,1.160858,1.1,1.50416,1.231281,1.137658,'\'(-inf-6.266667]\''
1.261328,1.032254,1.133276,1.056309,1.150046,1.577233,1.076415,1.076312,1.114521,1.118142,1.127507,1.115899,1.123197,1.017704,1.04221,0.1051,1.157517,1.099029,1.187932,1.10563,1.169154,1.084307,1.532919,1.195512,1.15832,'\'(-inf-6.266667]\''
1.260686,1.046876,1.138871,1.057676,1.150991,1.624954,1.093894,1.082446,1.095233,1.103917,1.109819,1.095432,1.131746,1.035192,1.064004,0.105059,1.126223,1.036317,1.186176,1.111453,1.176296,1.074367,1.499295,1.126166,1.184974,'\'(-inf-6.266667]\''
1.259265,1.06653,1.142134,1.068612,1.153683,1.522926,1.062214,1.076312,1.103013,1.109137,1.116812,1.103001,1.14448,1.05581,1.051952,0.119315,1.133441,1.050285,1.194667,1.11841,1.183406,1.068677,1.493202,1.138904,1.19613,'\'(-inf-6.266667]\''
1.269733,1.06621,1.14679,1.075448,1.157607,1.632753,1.10591,1.094714,1.110198,1.114723,1.124263,1.112433,1.163874,1.065171,1.051921,0.114399,1.140945,1.063037,1.199449,1.122407,1.19247,1.10279,1.498426,1.153961,1.190502,'\'(-inf-6.266667]\''
1.286095,1.071915,1.153162,1.079549,1.162733,1.649392,1.114649,1.098395,1.111833,1.117348,1.127154,1.115922,1.169459,1.076003,1.064941,0.114706,1.141617,1.058933,1.207713,1.129522,1.19801,1.107091,1.50643,1.145607,1.199653,'\'(-inf-6.266667]\''
1.291329,1.076525,1.15638,1.086385,1.166657,1.585841,1.119019,1.104529,1.121359,1.12446,1.13631,1.126109,1.174997,1.093455,1.083394,0.109708,1.153131,1.079606,1.214722,1.139374,1.207138,1.124832,1.516555,1.167875,1.20609,'\'(-inf-6.266667]\''
1.288982,1.083357,1.16328,1.094587,1.172699,1.568625,1.123388,1.113117,1.130006,1.130229,1.14402,1.13376,1.186191,1.096903,1.065003,0.117184,1.161178,1.089047,1.229464,1.144474,1.209284,1.125282,1.529037,1.176897,1.207364,'\'(-inf-6.266667]\''
1.292522,1.090693,1.169599,1.100056,1.176995,1.592659,1.114649,1.11189,1.134528,1.132946,1.148451,1.138512,1.192976,1.089982,1.062974,0.121342,1.162704,1.089267,1.23083,1.152186,1.22059,1.146137,1.54025,1.179184,1.212422,'\'(-inf-6.266667]\''
1.290584,1.098181,1.173621,1.104157,1.181291,1.605831,1.119019,1.118024,1.134689,1.133159,1.148439,1.137404,1.20197,1.099371,1.068438,0.117082,1.159664,1.080873,1.234758,1.156404,1.228116,1.145651,1.547668,1.16994,1.218554,'\'(-inf-6.266667]\''
1.296472,1.108462,1.179457,1.116461,1.185129,1.63154,1.088432,1.114344,1.127269,1.129039,1.142151,1.128714,1.211721,1.093681,1.054731,0.121936,1.145757,1.050977,1.239395,1.160748,1.22991,1.135294,1.572619,1.133663,1.226807,'\'(-inf-6.266667]\''
1.313709,1.117095,1.186357,1.115094,1.187621,1.650027,1.135405,1.131519,1.128681,1.129039,1.144913,1.131426,1.221609,1.100676,1.068282,0.117819,1.146495,1.04559,1.24311,1.169153,1.232024,1.129159,1.574789,1.128961,1.23429,'\'(-inf-6.266667]\''
1.322484,1.132474,1.192818,1.113727,1.191859,1.618945,1.143051,1.132746,1.131518,1.130901,1.148251,1.135741,1.241534,1.116311,1.077524,0.129433,1.148099,1.042228,1.238754,1.175385,1.237116,1.137572,1.56975,1.127659,1.233803,'\'(-inf-6.266667]\''
1.325365,1.144455,1.196501,1.121929,1.194752,1.520211,1.145236,1.140107,1.127962,1.128398,1.145242,1.132829,1.254922,1.13389,1.095383,0.135926,1.140117,1.026909,1.233927,1.183003,1.246821,1.147219,1.107908,1.108408,1.246988,'\'(-inf-6.266667]\''
1.333674,1.167558,1.203007,1.128765,1.201682,1.495311,1.143051,1.141334,1.125745,1.129619,1.143961,1.131037,1.266134,1.138862,1.103033,0.13611,1.133351,1.010712,1.232706,1.186938,1.251977,1.133198,1.104104,1.089825,1.251092,'\'(-inf-6.266667]\''
1.349177,1.179707,1.208611,1.134233,1.206494,1.541414,1.13322,1.140107,1.120108,1.128062,1.140247,1.126274,1.281004,1.145512,1.114274,0.14334,1.123661,0.989177,1.226091,1.194084,1.272539,1.152278,1.090985,1.066413,1.252812,'\'(-inf-6.266667]\''
1.353729,1.188255,1.214742,1.143803,1.212737,1.556377,1.171454,1.159736,1.129276,1.135021,1.148991,1.137462,1.295651,1.154553,1.131103,0.146474,1.134024,1.002824,1.234981,1.202268,1.260977,1.145688,1.092726,1.083059,1.252617,'\'(-inf-6.266667]\''
1.362379,1.201548,1.222294,1.160208,1.219668,1.541645,1.173638,1.170778,1.140202,1.144789,1.15971,1.149488,1.305391,1.169661,1.129916,0.155138,1.146844,1.019207,1.242877,1.207619,1.269176,1.158219,1.092329,1.100689,1.247814,'\'(-inf-6.266667]\''
1.369438,1.212822,1.23074,1.164309,1.227773,1.520615,1.191117,1.178139,1.146805,1.149673,1.16635,1.157871,1.320362,1.185394,1.11877,0.162655,1.152044,1.0224,1.250896,1.210484,1.274268,1.164678,1.093865,1.10053,1.246331,'\'(-inf-6.266667]\''
1.378548,1.222986,1.23848,1.172512,1.233615,1.51426,1.21078,1.192861,1.154486,1.154923,1.174166,1.167232,1.332748,1.198174,1.124484,0.163823,1.159237,1.030338,1.250747,1.217598,1.288072,1.189485,1.093375,1.114825,1.249604,'\'(-inf-6.266667]\''
1.391897,1.232123,1.245362,1.175246,1.240918,1.48364,1.212965,1.195315,1.151599,1.155442,1.172744,1.16564,1.345685,1.221081,1.131571,0.163741,1.153506,1.012131,1.25301,1.227797,1.293773,1.187143,1.092877,1.096147,1.262899,'\'(-inf-6.266667]\''
1.417932,1.246291,1.253004,1.183448,1.246847,1.509176,1.215149,1.198995,1.154733,1.159624,1.177962,1.171523,1.35885,1.234038,1.143061,0.177812,1.15731,1.01137,1.253439,1.233117,1.297136,1.187964,1.109372,1.099133,1.266384,'\'(-inf-6.266667]\''
1.422455,1.256438,1.258366,1.183448,1.250999,1.462495,1.222796,1.203902,1.162439,1.165332,1.185379,1.180059,1.370104,1.255648,1.147807,0.179614,1.163687,1.022805,1.257017,1.241836,1.305495,1.204216,1.118145,1.113745,1.273786,'\'(-inf-6.266667]\''
1.422075,1.268772,1.263497,1.18755,1.256584,1.367863,1.230443,1.210036,1.169773,1.171498,1.192019,1.187664,1.382858,1.27161,1.144404,0.182154,1.168836,1.032753,1.259669,1.24404,1.304054,1.208349,1.113126,1.127564,1.279192,'\'(-inf-6.266667]\''
1.423012,1.281139,1.270209,1.18755,1.261997,1.401198,1.231535,1.21249,1.173378,1.172505,1.195369,1.191684,1.389845,1.268482,1.141313,0.185247,1.169729,1.028396,1.276156,1.24703,1.309339,1.208585,1.1105,1.124355,1.287587,'\'(-inf-6.266667]\''
1.426564,1.288728,1.276894,1.193018,1.267581,1.344464,1.232628,1.214944,1.180922,1.177694,1.20255,1.20002,1.392989,1.264762,1.146683,0.184899,1.176572,1.036638,1.281676,1.253861,1.331438,1.236871,1.109305,1.134044,1.296849,'\'(-inf-6.266667]\''
1.431935,1.301281,1.284437,1.193018,1.275257,1.381382,1.247921,1.222305,1.193062,1.189293,1.214079,1.212753,1.40359,1.271817,1.144872,0.195898,1.19079,1.057159,1.287305,1.259779,1.333327,1.263559,1.102992,1.15628,1.30636,'\'(-inf-6.266667]\''
1.44134,1.312488,1.292213,1.194385,1.281443,1.468562,1.240274,1.221078,1.19715,1.193414,1.21864,1.21682,1.408814,1.286861,1.152335,0.19811,1.19392,1.055284,1.291347,1.264627,1.335025,1.26289,1.089223,1.154819,1.315737,'\'(-inf-6.266667]\''
1.444443,1.322819,1.291123,1.201221,1.280813,1.532054,1.251198,1.229666,1.195354,1.191857,1.2173,1.214333,1.413633,1.296419,1.161015,0.207511,1.189496,1.053359,1.296384,1.267302,1.349085,1.259702,1.091022,1.154946,1.327432,'\'(-inf-6.266667]\''
1.44059,1.332242,1.296852,1.21079,1.29012,1.512065,1.244644,1.230893,1.199641,1.197657,1.220837,1.217799,1.42297,1.296326,1.167509,0.207245,1.191294,1.052278,1.293961,1.272842,1.350142,1.268074,1.079973,1.152055,1.33319,'\'(-inf-6.266667]\''
1.440442,1.340992,1.302652,1.216259,1.295648,1.484738,1.264307,1.244388,1.197212,1.196344,1.218616,1.214533,1.432148,1.304759,1.15886,0.22021,1.184244,1.034594,1.300532,1.278383,1.35216,1.254895,1.087505,1.128771,1.353509,'\'(-inf-6.266667]\''
1.44903,1.344661,1.308658,1.223094,1.301318,1.478036,1.278508,1.252976,1.198414,1.198908,1.220485,1.21708,1.438937,1.299081,1.162732,0.221787,1.183351,1.028733,1.311789,1.283293,1.362344,1.267311,1.098957,1.125308,1.356782,'\'(-inf-6.266667]\''
1.459185,1.354235,1.313145,1.234031,1.304211,1.49687,1.28834,1.26279,1.198426,1.200038,1.221425,1.217398,1.449184,1.300916,1.171162,0.226048,1.182459,1.022298,1.321989,1.288959,1.370383,1.267097,1.097624,1.126039,1.367627,'\'(-inf-6.266667]\''
1.464414,1.364196,1.32118,1.236765,1.309824,1.563079,1.299264,1.268924,1.210059,1.206875,1.232473,1.229671,1.455127,1.302795,1.175034,0.233319,1.193312,1.038141,1.33673,1.291005,1.370768,1.271962,1.095703,1.143606,1.373532,'\'(-inf-6.266667]\''
1.464363,1.372341,1.326926,1.246335,1.316096,1.542569,1.318927,1.281193,1.22625,1.21826,1.247188,1.246059,1.45835,1.309157,1.192332,0.229591,1.211915,1.070249,1.341268,1.293114,1.388287,1.322672,1.09615,1.182964,1.382381,'\'(-inf-6.266667]\''
1.467096,1.382319,1.334461,1.254537,1.323371,1.516802,1.303633,1.281193,1.228455,1.222259,1.249432,1.248264,1.471736,1.316663,1.166385,0.237845,1.209833,1.062311,1.343046,1.296577,1.391329,1.324674,1.094455,1.171751,1.395297,'\'(-inf-6.266667]\''
1.467778,1.387804,1.339126,1.258639,1.328297,1.56175,1.313465,1.28978,1.236892,1.226654,1.257166,1.256941,1.482973,1.324559,1.174816,0.241553,1.218643,1.074759,1.35558,1.301802,1.409009,1.349977,1.099875,1.180582,1.403498,'\'(-inf-6.266667]\''
1.47403,1.397715,1.347143,1.273677,1.335227,1.528992,1.323296,1.303276,1.243012,1.231111,1.263289,1.263096,1.491498,1.347651,1.173442,0.239627,1.223067,1.077799,1.365606,1.304793,1.434311,1.363757,1.09954,1.181058,1.410428,'\'(-inf-6.266667]\''
1.484862,1.399297,1.354981,1.283246,1.343561,1.513856,1.337497,1.31309,1.255573,1.242649,1.275677,1.276194,1.501388,1.341083,1.185275,0.249152,1.237776,1.09805,1.37905,1.308098,1.430916,1.352407,1.091676,1.202564,1.414186,'\'(-inf-6.266667]\''
1.489425,1.405372,1.363204,1.288715,1.351466,1.531361,1.360438,1.326585,1.263787,1.249273,1.283551,1.285485,1.509579,1.329505,1.212252,0.241409,1.246961,1.10516,1.393126,1.316597,1.432357,1.366082,1.081176,1.211808,1.419092,'\'(-inf-6.266667]\''
1.497825,1.414912,1.369728,1.296917,1.35917,1.499875,1.360438,1.33272,1.263551,1.252569,1.284116,1.285944,1.515407,1.319974,1.20938,0.250852,1.242912,1.094587,1.393393,1.322389,1.441805,1.366495,1.065481,1.202659,1.427844,'\'(-inf-6.266667]\''
1.500661,1.417925,1.374072,1.307854,1.36401,1.457411,1.368084,1.341307,1.271678,1.259956,1.291755,1.293879,1.523245,1.304597,1.212034,0.250155,1.250143,1.107897,1.401291,1.325443,1.444752,1.366725,1.07057,1.218828,1.431542,'\'(-inf-6.266667]\''
1.506151,1.427297,1.381785,1.302386,1.370625,1.427196,1.371361,1.342534,1.278442,1.265298,1.298395,1.301554,1.522277,1.313914,1.214438,0.248455,1.255008,1.112896,1.405934,1.332494,1.45484,1.407517,1.077038,1.224578,1.440271,'\'(-inf-6.266667]\''
1.515619,1.437444,1.386683,1.309221,1.376181,1.413157,1.374639,1.347441,1.280399,1.267984,1.301052,1.304077,1.530217,1.334079,1.225741,0.248496,1.257233,1.111916,1.40982,1.337656,1.458011,1.398466,1.071203,1.224292,1.453414,'\'(-inf-6.266667]\''
1.510146,1.443215,1.392153,1.306487,1.381938,1.394554,1.393209,1.354802,1.283496,1.271281,1.303355,1.305964,1.536205,1.341885,1.229831,0.25333,1.256586,1.10837,1.427277,1.338128,1.464993,1.413694,1.076238,1.218511,1.468737,'\'(-inf-6.266667]\''
1.504616,1.451578,1.397819,1.320158,1.38632,1.375027,1.403041,1.367071,1.289889,1.273448,1.308632,1.311446,1.537499,1.341002,1.208568,0.254723,1.260027,1.111697,1.442362,1.34477,1.471943,1.415277,1.082056,1.217907,1.480923,'\'(-inf-6.266667]\''
1.508969,1.457535,1.402377,1.326993,1.392764,1.360757,1.418334,1.375659,1.296157,1.279858,1.314732,1.317848,1.548271,1.341084,1.2219,0.256464,1.26678,1.120345,1.458675,1.345652,1.46605,1.40515,1.076273,1.230264,1.479639,'\'(-inf-6.266667]\''
1.512453,1.459571,1.408875,1.33793,1.398062,1.338283,1.429258,1.387927,1.303454,1.285261,1.321666,1.326101,1.553062,1.341048,1.23798,0.262219,1.273093,1.128198,1.473834,1.349744,1.47569,1.430803,1.078553,1.237094,1.484508,'\'(-inf-6.266667]\''
1.523609,1.462835,1.414631,1.351601,1.405107,1.312516,1.441275,1.398968,1.299997,1.286329,1.319574,1.322399,1.556186,1.349951,1.245287,0.256976,1.265874,1.111089,1.473391,1.352608,1.493338,1.443543,1.077083,1.215588,1.492046,'\'(-inf-6.266667]\''
1.530457,1.48333,1.425123,1.35707,1.414787,1.268839,1.443459,1.405102,1.301546,1.288496,1.321608,1.322988,1.561592,1.387953,1.256839,0.270023,1.264736,1.098202,1.494328,1.357425,1.464897,1.392639,1.081118,1.19189,1.530683,'\'(-inf-6.266667]\''
1.536981,1.494015,1.429726,1.359804,1.415646,1.237757,1.444552,1.411237,1.298201,1.286878,1.319187,1.319015,1.571246,1.413602,1.249252,0.26861,1.256935,1.082849,1.515495,1.363405,1.474377,1.399574,1.077794,1.174673,1.544961,'\'(-inf-6.266667]\''
1.538073,1.499922,1.435267,1.370741,1.420401,1.24157,1.435813,1.408783,1.307926,1.292617,1.328095,1.328023,1.578645,1.421999,1.250376,0.270289,1.265305,1.098219,1.524992,1.364853,1.476011,1.406425,1.063613,1.187189,1.552747,'\'(-inf-6.266667]\''
1.545188,1.507494,1.441524,1.376209,1.425699,1.257747,1.463123,1.428412,1.319608,1.299729,1.339355,1.34026,1.58563,1.435165,1.24741,0.265394,1.277686,1.11874,1.527039,1.370992,1.499231,1.445832,1.063631,1.209298,1.558877,'\'(-inf-6.266667]\''
1.554042,1.512256,1.448987,1.374842,1.434033,1.202978,1.467492,1.432093,1.331079,1.308611,1.350591,1.353866,1.593524,1.461161,1.237481,0.275943,1.289329,1.13612,1.541081,1.379208,1.499519,1.446098,1.064247,1.228835,1.556773,'\'(-inf-6.266667]\''
1.564778,1.528729,1.452776,1.387146,1.437727,1.178597,1.465307,1.438227,1.330807,1.310901,1.351331,1.353854,1.60619,1.476291,1.242633,0.275799,1.286366,1.131475,1.546875,1.380026,1.51185,1.474307,1.073342,1.227755,1.558046,'\'(-inf-6.266667]\''
1.569813,1.548753,1.459971,1.39945,1.443512,1.196103,1.468584,1.446815,1.329221,1.312396,1.350355,1.352487,1.613065,1.495492,1.255653,0.284586,1.280506,1.116088,1.549514,1.385975,1.523155,1.476972,1.071604,1.209425,1.56344,'\'(-inf-6.266667]\''
1.581003,1.562568,1.467389,1.403551,1.449784,1.187725,1.470769,1.450495,1.3357,1.316609,1.357278,1.360291,1.618016,1.512951,1.268829,0.290813,1.287039,1.121949,1.558723,1.388368,1.539009,1.497039,1.078056,1.219305,1.56226,'\'(-inf-6.266667]\''
1.597757,1.576231,1.4747,1.409019,1.454109,1.194138,1.481693,1.459083,1.337026,1.318074,1.360028,1.36305,1.621794,1.539253,1.274574,0.287658,1.288371,1.115142,1.559331,1.395954,1.551948,1.515172,1.081074,1.214254,1.577511,'\'(-inf-6.266667]\''
1.603713,1.592503,1.482047,1.411753,1.458118,1.154448,1.488248,1.467671,1.341523,1.319997,1.364659,1.367377,1.629269,1.587309,1.284503,0.297265,1.290299,1.114805,1.557556,1.401652,1.557425,1.498037,1.080219,1.209267,1.58382,'\'(-inf-6.266667]\''
1.630554,1.61537,1.490296,1.419956,1.463818,1.183392,1.494802,1.477485,1.348175,1.325613,1.37318,1.376196,1.639639,1.58805,1.294619,0.30388,1.30114,1.123604,1.558578,1.406153,1.557649,1.505175,1.080761,1.217431,1.590589,'\'(-inf-6.266667]\''
1.64125,1.633813,1.497392,1.433627,1.467627,1.219674,1.503541,1.48362,1.356463,1.328879,1.381689,1.384921,1.655298,1.604641,1.297117,0.307219,1.310454,1.133519,1.558607,1.412071,1.575873,1.523815,1.078731,1.224832,1.602551,'\'(-inf-6.266667]\''
1.655798,1.645776,1.503255,1.443197,1.477479,1.283745,1.519927,1.493434,1.364713,1.337518,1.390516,1.394341,1.675087,1.606176,1.303456,0.319713,1.320778,1.147909,1.557143,1.417422,1.581382,1.532443,1.083956,1.240334,1.586512,'\'(-inf-6.266667]\''
1.661362,1.657353,1.513632,1.443197,1.483751,1.293046,1.528666,1.498342,1.370585,1.340936,1.396357,1.399705,1.682702,1.605391,1.293402,0.316784,1.323624,1.145291,1.548022,1.424253,1.59384,1.528539,1.076074,1.234426,1.622857,'\'(-inf-6.266667]\''
1.667687,1.6658,1.520684,1.451399,1.48945,1.299921,1.546144,1.51061,1.371527,1.34466,1.397802,1.40013,1.6908,1.63205,1.296212,0.319201,1.321127,1.137589,1.531941,1.431273,1.587499,1.529642,1.061299,1.225785,1.638122,'\'(-inf-6.266667]\''
1.677781,1.754444,1.517788,1.462336,1.489564,1.547538,1.548329,1.516744,1.355298,1.335839,1.384004,1.382881,1.704565,1.711359,1.236638,0.373459,1.300105,1.104789,1.522261,1.391516,1.360551,1.284002,1.04971,1.188746,1.586559,'\'(-inf-6.266667]\''
1.6893,1.924731,1.507787,1.480108,1.483779,2.103201,1.500264,1.509383,1.32766,1.322561,1.359981,1.348018,1.715071,1.709937,1.040243,0.483715,1.264684,1.055892,1.481927,0.822041,1.008118,0.932333,1.03652,1.157615,2.007955,'\'(10.533333-inf)\''
1.702837,2.067356,1.505946,1.485577,1.491111,2.279121,1.522112,1.527786,1.323312,1.325522,1.357278,1.341699,1.712358,1.732981,1.097444,2.824266,1.257905,1.051602,1.416339,0.882794,1.241504,1.336912,1.045718,1.148148,1.841373,'\'(10.533333-inf)\''
1.712584,2.115766,1.513694,1.463703,1.497612,2.193848,1.554884,1.522878,1.338388,1.335259,1.371852,1.355894,1.710383,1.826881,1.15655,2.890424,1.277699,1.079082,1.383135,1.013492,1.414582,1.543793,1.057049,1.178104,1.838652,'\'(10.533333-inf)\''
1.722859,2.142168,1.530095,1.492412,1.505717,2.019661,1.558161,1.536373,1.354307,1.345362,1.387248,1.375665,1.718609,1.915818,1.160859,2.932863,1.297,1.092493,1.389552,1.06178,1.464865,1.586989,1.069632,1.188523,1.873655,'\'(6.266667-10.533333]\''
1.724263,2.153324,1.534966,1.499248,1.512705,2.081536,1.564715,1.541281,1.366633,1.355222,1.398578,1.388033,1.715588,1.963556,1.178781,2.956991,1.311541,1.113791,1.404942,1.109501,1.489366,1.610144,1.076631,1.195162,1.749835,'\'(6.266667-10.533333]\''
1.724405,2.192413,1.537602,1.515653,1.521068,2.123653,1.557068,1.543734,1.375442,1.360075,1.406582,1.39717,1.712674,2.018184,1.16217,3.01428,1.322356,1.131509,1.423371,1.136762,1.534942,1.665364,1.088373,1.18919,1.773376,'\'(6.266667-10.533333]\''
1.713016,2.218444,1.540462,1.515653,1.524848,2.144914,1.569085,1.551095,1.380768,1.361906,1.410366,1.400436,1.707923,2.064849,1.188054,3.055511,1.326276,1.136745,1.451143,1.156247,1.544678,1.65393,1.08739,1.182551,1.770352,'\'(6.266667-10.533333]\''
1.710879,2.256775,1.548497,1.533425,1.527626,2.246537,1.59421,1.570725,1.388647,1.365539,1.417324,1.408536,1.698577,2.132999,1.176377,3.108355,1.334956,1.140528,1.470876,1.163172,1.536127,1.626898,1.09529,1.188078,1.73845,'\'(6.266667-10.533333]\''
1.706895,2.282705,1.551697,1.54026,1.539139,2.31211,1.602949,1.579312,1.403736,1.379732,1.430652,1.421882,1.691773,2.173214,1.179999,3.151245,1.353055,1.171335,1.489674,1.155082,1.549386,1.650972,1.096363,1.212316,1.750883,'\'(6.266667-10.533333]\''
1.717739,2.320818,1.552305,1.552564,1.548934,2.336085,1.610596,1.590354,1.410327,1.391728,1.437633,1.429168,1.700008,2.216283,1.159485,3.204622,1.361865,1.19032,1.514686,1.167233,1.594801,1.759051,1.112084,1.237348,2.108836,'\'(6.266667-10.533333]\''
1.727292,2.360698,1.560518,1.571704,1.560504,2.450939,1.613873,1.594034,1.421451,1.403572,1.448611,1.441406,1.696122,2.273124,1.162482,3.257999,1.375797,1.206872,1.537357,1.184357,1.560436,1.684119,1.103933,1.254661,1.81718,'\'(-inf-6.266667]\''
1.730065,2.398844,1.569456,1.570336,1.576141,2.677526,1.626981,1.607529,1.437667,1.420696,1.463584,1.458324,1.692935,2.348366,1.169227,3.311007,1.394129,1.232342,1.542605,1.204818,1.706642,1.990816,1.125422,1.278644,2.561941,'\'(-inf-6.266667]\''
1.732606,2.455786,1.58507,1.58264,1.589401,2.794863,1.66303,1.630839,1.460437,1.43901,1.484481,1.480725,1.691693,2.414482,1.183059,3.385092,1.419899,1.261714,1.547437,1.217503,1.732232,2.018931,1.148333,1.29259,1.965971,'\'(-inf-6.266667]\''
1.73002,2.501016,1.595714,1.604514,1.601458,2.794748,1.668492,1.643108,1.483727,1.455859,1.505389,1.502902,1.688367,2.489172,1.181716,3.444142,1.44713,1.300155,1.570999,1.230221,1.721919,1.999705,1.157219,1.301071,1.873925,'\'(-inf-6.266667]\''
1.725371,2.5081,1.608441,1.623653,1.613887,2.78614,1.685971,1.659056,1.514053,1.473075,1.532492,1.530443,1.695012,2.532062,1.194112,3.456554,1.480197,1.353274,1.595844,1.254113,1.755132,2.03455,1.728327,1.317971,1.861767,'\'(-inf-6.266667]\''
1.732526,2.5343,1.620891,1.638691,1.629238,2.845762,1.700172,1.673778,1.529576,1.489161,1.547242,1.544308,1.704187,2.560941,1.203697,3.491415,1.494802,1.372022,1.634095,1.280869,1.746676,1.981598,1.723539,1.337317,1.884581,'\'(-inf-6.266667]\''
1.73485,2.565026,1.625244,1.661932,1.639663,2.960442,1.711096,1.692181,1.539536,1.502744,1.556491,1.552773,1.719034,2.595741,1.204415,3.53195,1.505617,1.388523,1.662027,1.294216,1.76884,2.001017,1.720148,1.35158,1.878473,'\'(-inf-6.266667]\''
1.736629,2.593295,1.632662,1.670134,1.647424,2.995163,1.720927,1.705676,1.554761,1.512725,1.570477,1.564705,1.728452,2.651402,1.203416,3.569043,1.52052,1.414348,1.69674,1.306083,1.777103,2.022641,1.722568,1.371148,1.844644,'\'(-inf-6.266667]\''
1.751349,2.620807,1.649366,1.67697,1.659395,2.961713,1.746052,1.715491,1.586747,1.533909,1.600871,1.59504,1.740823,2.73161,1.211503,3.605727,1.559072,1.468244,1.744174,1.329629,1.801508,2.06916,1.706432,1.408315,1.849831,'\'(-inf-6.266667]\''
1.761811,2.650152,1.661852,1.685172,1.676951,2.998572,1.756976,1.728986,1.615426,1.557382,1.627856,1.622499,1.758927,2.779355,1.227958,3.644315,1.592034,1.5191,1.79558,1.346785,1.809835,2.102087,1.694891,1.449579,1.843056,'\'(-inf-6.266667]\''
1.770404,2.676083,1.672443,1.707046,1.694421,3.009202,1.773362,1.748615,1.640215,1.579085,1.65115,1.646314,1.775474,2.820746,1.234702,3.677824,1.620443,1.563926,1.87591,1.362556,1.798818,2.076293,1.68505,1.475373,1.831757,'\'(-inf-6.266667]\''
1.790909,2.695602,1.688325,1.726185,1.706593,2.830567,1.79084,1.764564,1.660618,1.596025,1.671553,1.665579,1.789706,2.875655,1.269984,3.702772,1.64686,1.59301,1.933507,1.369197,1.804839,2.13676,1.669578,1.492146,1.813893,'\'(-inf-6.266667]\''
1.800195,2.712058,1.703877,1.734388,1.719767,2.793592,1.810503,1.779286,1.685345,1.617789,1.69486,1.687449,1.803199,2.902971,1.278477,3.727391,1.673484,1.630607,1.993828,1.392366,1.806985,2.171208,1.6686,1.545609,1.81612,'\'(-inf-6.266667]\''
1.815482,2.7182,1.722878,1.756261,1.738039,2.84813,1.82252,1.792781,1.72189,1.648313,1.729437,1.722489,1.822539,2.915948,1.2885,3.736322,1.717559,1.692256,2.072559,1.403887,1.824632,2.238755,1.637373,1.634332,1.801144,'\'(-inf-6.266667]\''
1.828991,2.723029,1.747805,1.774034,1.753189,2.704101,1.831259,1.806276,1.73496,1.65918,1.742541,1.732935,1.851343,2.906423,1.27829,3.745088,1.728905,1.683777,2.115788,1.411567,1.838852,2.286659,1.623763,1.63646,1.803205,'\'(-inf-6.266667]\''
1.841329,2.713034,1.770345,1.787705,1.768196,2.534421,1.874955,1.834493,1.768891,1.680455,1.774474,1.763907,1.879918,2.893874,1.292933,3.733249,1.767818,1.731474,2.175993,1.417454,1.832479,2.284846,1.609566,1.682045,1.796801,'\'(-inf-6.266667]\''
1.860192,2.704991,1.79891,1.783603,1.789503,2.485314,1.89571,1.843081,1.815842,1.713696,1.818818,1.809451,1.907877,2.875113,1.283067,3.717601,1.823886,1.80405,2.227423,1.430045,1.834913,2.31759,1.592603,1.758507,1.78052,'\'(-inf-6.266667]\''
1.877963,2.704806,1.813496,1.800009,1.798869,2.502993,1.906634,1.85903,1.812324,1.714642,1.817267,1.801964,1.934796,2.873635,1.282442,3.705045,1.811596,1.77429,2.252879,1.449876,1.833151,2.283294,1.5777,1.736747,1.814056,'\'(-inf-6.266667]\''
1.895404,2.698933,1.834785,1.812312,1.819689,2.529048,1.917558,1.870071,1.813414,1.72502,1.819876,1.80029,1.96399,2.854795,1.302051,3.685259,1.803575,1.742537,2.280919,1.456267,1.854097,2.304281,1.56701,1.706855,1.826611,'\'(-inf-6.266667]\''
1.91542,2.684513,1.859256,1.824616,1.836816,2.430314,1.944868,1.887247,1.827685,1.736466,1.834673,1.81366,1.987948,2.808728,1.300427,3.653778,1.813937,1.740561,2.289796,1.461775,1.860695,2.295334,1.556435,1.694656,1.835936,'\'(-inf-6.266667]\''
1.901286,2.668224,1.872796,1.845123,1.852309,2.38941,1.963438,1.908103,1.849303,1.752156,1.852984,1.830909,2.012535,2.747239,1.301863,3.615026,1.828892,1.766825,2.30779,1.472572,1.866844,2.330958,1.552746,1.725184,1.844117,'\'(-inf-6.266667]\''
1.886118,2.657035,1.885532,1.86973,1.867001,2.435109,1.9689,1.921598,1.860279,1.762229,1.861552,1.838183,2.037646,2.715198,1.295681,3.580349,1.830574,1.766453,2.320918,1.480725,1.856051,2.282813,1.548179,1.735286,1.843337,'\'(-inf-6.266667]\''
1.889192,2.633662,1.905535,1.883401,1.884242,2.427367,1.991841,1.941227,1.86127,1.767784,1.862728,1.837263,2.092444,2.708666,1.313635,3.528795,1.81897,1.733484,2.338148,1.483967,1.858613,2.242601,1.541053,1.707839,1.85081,'\'(-inf-6.266667]\''
1.883191,2.63134,1.92669,1.906642,1.902457,2.382882,2.007134,1.964537,1.883135,1.786221,1.882097,1.85667,2.105572,2.692586,1.342953,3.499321,1.836551,1.750746,2.336175,1.496496,1.908897,2.391482,1.5369,1.729885,1.85417,'\'(-inf-6.266667]\''
1.87216,2.627874,1.942733,1.902541,1.915831,2.378607,2.034444,1.971898,1.897406,1.798247,1.894085,1.868318,2.126723,2.681468,1.355255,3.470114,1.841531,1.756539,2.331247,1.505247,1.908096,2.349149,1.530905,1.742719,1.862855,'\'(-inf-6.266667]\''
1.861408,2.575997,1.951617,1.918946,1.925139,2.522982,2.049738,1.987847,1.900639,1.802887,1.896047,1.870322,2.135305,2.595511,1.364404,3.375977,1.833963,1.746321,2.327272,1.508709,1.89916,2.312145,1.536584,1.735508,1.877625,'\'(-inf-6.266667]\''
1.861322,2.551362,1.964245,1.929883,1.938743,2.535461,2.066123,2.003796,1.916348,1.815615,1.910327,1.886015,2.137878,2.521974,1.366714,3.312502,1.84756,1.762822,2.327204,1.51469,1.911779,2.340484,1.540838,1.750533,1.879087,'\'(-inf-6.266667]\''
1.86367,2.56336,1.972691,1.944921,1.947907,2.521884,2.077047,2.016064,1.922034,1.820804,1.91571,1.890955,2.151192,2.498031,1.371741,3.298923,1.846279,1.76218,2.320808,1.521867,1.914053,2.358294,1.552038,1.741893,1.890879,'\'(-inf-6.266667]\''
1.863868,2.560264,1.985034,1.976364,1.96174,2.544358,2.090156,2.041827,1.932143,1.829809,1.924913,1.900717,2.145357,2.478512,1.373334,3.275573,1.851648,1.766707,2.316647,1.528604,1.918024,2.375094,1.591983,1.745228,1.893372,'\'(-inf-6.266667]\''
1.863124,2.55848,1.999039,1.987301,1.973138,2.491958,2.110912,2.057776,1.938882,1.834784,1.930977,1.906588,2.150518,2.465542,1.378517,3.256565,1.852178,1.758937,2.310987,1.53342,1.934647,2.381924,1.603051,1.743863,1.897181,'\'(-inf-6.266667]\''
1.86592,2.554206,2.011588,1.994136,1.978895,2.51576,2.131667,2.068818,1.958294,1.845987,1.948877,1.925581,2.166957,2.435408,1.398999,3.232765,1.873666,1.784678,2.320839,1.537858,1.935383,2.415008,1.616073,1.786302,1.902643,'\'(-inf-6.266667]\''
1.870398,2.549781,2.029489,2.011908,1.994246,2.520498,2.137129,2.084766,1.973816,1.858868,1.963404,1.941604,2.174623,2.418094,1.399249,3.212037,1.884339,1.793579,2.32989,1.542108,1.9448,2.439297,1.624775,1.796213,1.90599,'\'(-inf-6.266667]\''
1.876707,2.544261,2.040536,2.01601,2.000317,2.540141,2.152422,2.094581,1.97679,1.859906,1.966683,1.943502,2.180802,2.386366,1.396845,3.191186,1.88258,1.782904,2.324457,1.548215,1.952582,2.422288,1.631987,1.785286,1.916458,'\'(-inf-6.266667]\''
1.890823,2.545793,2.058134,2.041984,2.009396,2.615304,2.180825,2.124025,1.981002,1.859722,1.971784,1.948701,2.188407,2.375929,1.410895,3.17777,1.881558,1.764038,2.316756,1.55174,1.968948,2.418003,1.639403,1.763113,1.933231,'\'(-inf-6.266667]\''
1.902553,2.54655,2.071469,2.084364,2.021167,2.670708,2.181917,2.149788,1.988212,1.86543,1.9794,1.956365,2.196077,2.420113,1.389008,3.169044,1.885012,1.760289,2.335282,1.559515,1.990631,2.422962,1.648258,1.759174,1.941921,'\'(-inf-6.266667]\''
1.915471,2.558631,2.094439,2.092567,2.046083,2.68001,2.210319,2.16451,2.000637,1.881089,1.991846,1.968732,2.208305,2.441964,1.385885,3.174861,1.892838,1.755796,2.327128,1.562947,1.978269,2.392543,1.650734,1.745578,1.977346,'\'(-inf-6.266667]\''
1.91638,2.573422,2.110803,2.113073,2.054531,2.710688,2.204857,2.175552,2.016444,1.892658,2.006279,1.984932,2.218543,2.4423,1.390132,3.183177,1.906538,1.767686,2.340554,1.569588,1.98698,2.417752,1.648335,1.769943,1.981947,'\'(-inf-6.266667]\''
1.930333,2.580187,2.129787,2.126744,2.070168,2.702657,2.22452,2.193954,2.02908,1.905417,2.019031,1.999245,2.228026,2.505472,1.404088,3.182522,1.916952,1.768531,2.335076,1.576608,2.001521,2.43009,1.651032,1.776931,1.991572,'\'(-inf-6.266667]\''
1.943029,2.585504,2.142022,2.134947,2.080393,2.640377,2.231075,2.197635,2.039561,1.915246,2.029714,2.010822,2.235351,2.472624,1.406149,3.181129,1.926707,1.775861,2.347345,1.580165,2.001296,2.429886,1.65659,1.794307,1.987169,'\'(-inf-6.266667]\''
1.959049,2.596424,2.149378,2.151352,2.086063,2.611433,2.237629,2.209903,2.039548,1.91494,2.031172,2.011707,2.236219,2.481586,1.400248,3.187089,1.921221,1.76544,2.363645,1.585894,2.020001,2.456913,1.663904,1.788621,1.999009,'\'(-inf-6.266667]\''
1.965096,2.607867,2.155938,2.16639,2.095228,2.615362,2.248553,2.223398,2.038817,1.919366,2.031066,2.010233,2.233263,2.522482,1.40668,3.194483,1.916357,1.753752,2.374428,1.588507,2.025253,2.455215,1.66296,1.77852,2.001143,'\'(-inf-6.266667]\''
1.962937,2.613319,2.166904,2.188264,2.104564,2.570298,2.264939,2.241801,2.044677,1.925654,2.036178,2.015267,2.237289,2.550226,1.416359,3.194033,1.916745,1.748212,2.38757,1.590899,2.042004,2.488973,1.672898,1.783062,2.001369,'\'(-inf-6.266667]\''
1.959782,2.627975,2.178925,2.186897,2.1137,2.579716,2.286787,2.250389,2.052296,1.930294,2.042819,2.022035,2.237289,2.58321,1.422011,3.205216,1.91703,1.743213,2.397098,1.593701,2.044758,2.481725,1.68078,1.779155,2.001625,'\'(-inf-6.266667]\''
1.971904,2.642614,2.19243,2.203302,2.124898,2.532515,2.316281,2.274925,2.060398,1.936765,2.051281,2.02991,2.237223,2.610617,1.428474,3.218673,1.924637,1.74252,2.399339,1.600248,2.065192,2.510764,1.684342,1.7654,2.007282,'\'(-inf-6.266667]\''
1.979508,2.651263,2.205372,2.211504,2.138817,2.520267,2.326113,2.28474,2.068859,1.946716,2.059661,2.038328,2.240645,2.634555,1.419887,3.230553,1.929462,1.742031,2.404393,1.603207,2.070348,2.534458,1.692577,1.765337,2.023799,'\'(-inf-6.266667]\''
1.987039,2.668224,2.215274,2.232011,2.144888,2.548807,2.325021,2.292101,2.07955,1.950806,2.070062,2.048432,2.242852,2.616667,1.416016,3.253657,1.938531,1.751607,2.413221,1.610542,2.087803,2.55814,1.696205,1.765718,2.033103,'\'(-inf-6.266667]\''
1.991255,2.671169,2.22574,2.247049,2.159065,2.541643,2.343591,2.30805,2.094056,1.9621,2.083625,2.062356,2.244029,2.606609,1.423603,3.259924,1.9539,1.769308,2.403389,1.620583,2.109614,2.586971,1.711282,1.782109,2.037389,'\'(-inf-6.266667]\''
1.998825,2.682813,2.244223,2.281226,2.171036,2.547478,2.357792,2.331359,2.112577,1.976446,2.101055,2.080336,2.248464,2.597194,1.492201,3.276843,1.972541,1.784999,2.416931,1.624424,2.087483,2.554566,1.714765,1.804727,2.043758,'\'(-inf-6.266667]\''
2.007708,2.695131,2.255511,2.289429,2.190281,2.547362,2.368716,2.339947,2.120592,1.992716,2.109153,2.088706,2.256951,2.610846,1.48018,3.289132,1.97923,1.78863,2.423504,1.626879,2.083576,2.556113,1.704609,1.809778,2.055112,'\'(-inf-6.266667]\''
2.014352,2.707364,2.262116,2.322239,2.199389,2.640666,2.38401,2.365711,2.117817,1.993295,2.107272,2.083967,2.260694,2.639573,1.487424,3.294007,1.971817,1.771672,2.426549,1.630499,2.110191,2.612629,1.698145,1.782459,2.079713,'\'(-inf-6.266667]\''
2.030372,2.732234,2.275147,2.308568,2.205489,2.616228,2.401488,2.369391,2.125299,1.998973,2.11557,2.093988,2.265675,2.684919,1.504409,3.319241,1.977703,1.771081,2.427047,1.63541,2.112529,2.608537,1.70214,1.779218,2.104491,'\'(-inf-6.266667]\''
2.038619,2.745561,2.282029,2.320872,2.212735,2.567583,2.414597,2.380433,2.127802,2.004925,2.118614,2.095816,2.271547,2.709335,1.484894,3.328479,1.97716,1.766403,2.426867,1.636417,2.105739,2.578813,1.697459,1.78303,2.083105,'\'(-inf-6.266667]\''
2.054202,2.768697,2.292611,2.333176,2.22167,2.625414,2.427706,2.391474,2.138121,2.015944,2.129427,2.106321,2.275081,2.733736,1.480835,3.35105,1.990122,1.778428,2.433059,1.637267,2.108877,2.612624,1.693448,1.796531,2.083198,'\'(-inf-6.266667]\''
2.075752,2.784515,2.304981,2.333176,2.234816,2.620503,2.430983,2.395155,2.144055,2.023575,2.136855,2.114597,2.277761,2.757242,1.479649,3.362868,1.996681,1.777212,?,1.639974,2.121817,2.632022,?,1.791004,2.092593,'\'(-inf-6.266667]\''
