@relation '2025-08-MD-weka.filters.unsupervised.attribute.Discretize-B3-M-1.0-R25-precision6-weka.filters.unsupervised.attribute.Reorder-R1,2,3,4,5,6,7,8,9,10,11,12,13,14,15,16,17,18,19,20,21,22,23,24,26,27,28,29,30,31,32,33,34,35,36,37,38,39,40,41,42,43,44,45,46,47,48,49,50,51,52,53,54,55,56,57,58,59,60,61,62,63,64,65,66,67,68,69,70,71,72,73,74,75,76,77,78,79,80,81,82,83,84,85,86,87,88,89,90,91,92,93,94,95,96,97,98,99,100,101,102,103,104,105,106,107,108,109,110,111,112,113,114,115,116,117,118,119,120,121,122,123,124,125,126,127,25-weka.filters.unsupervised.attribute.Discretize-B3-M-1.0-R25-precision6-weka.filters.unsupervised.attribute.Discretize-B3-M-1.0-Rlast-precision6-weka.filters.unsupervised.attribute.Discretize-B3-M-1.0-Rlast-precision6-weka.filters.unsupervised.attribute.Discretize-B3-M-1.0-R127-precision6-weka.filters.unsupervised.attribute.Discretize-B3-M-1.0-R127-precision6-weka.filters.unsupervised.attribute.Reorder-R1,2,3,4,5,6,7,8,9,10,11,12,13,14,15,16,17,18,19,20,21,22,23,24,25,26,27,28,29,30,31,32,33,34,35,36,37,38,39,40,41,42,43,44,45,46,47,48,49,50,51,52,53,54,55,56,57,58,59,60,61,62,63,64,65,66,67,68,69,70,71,72,73,74,75,76,77,78,79,80,81,82,83,84,85,86,87,88,89,90,91,92,93,94,95,96,97,98,99,100,101,102,103,104,105,106,107,108,109,110,111,112,113,114,115,116,117,118,119,120,121,122,123,124,125,127,126-weka.filters.unsupervised.attribute.Discretize-B3-M-1.0-R127-precision6-weka.filters.unsupervised.attribute.Discretize-B3-M-1.0-R126-precision6-weka.filters.unsupervised.attribute.Reorder-R1,2,3,4,5,6,7,8,9,10,11,12,13,14,15,16,17,18,19,20,21,22,23,24,25,26,27,28,29,30,31,32,33,34,35,36,37,38,39,40,41,42,43,44,45,46,47,48,49,50,51,52,53,54,55,56,57,58,59,60,61,62,63,64,65,66,67,68,69,70,71,72,73,74,75,76,77,78,79,80,81,82,83,84,85,86,87,88,89,90,91,92,93,94,95,96,97,98,99,100,101,102,103,104,105,106,107,108,109,110,111,112,113,114,115,116,117,118,119,120,121,122,123,124,125,127,126-weka.filters.unsupervised.attribute.Remove-R1-weka.filters.unsupervised.attribute.Remove-R57,93,121-weka.filters.unsupervised.attribute.Standardize-weka.filters.unsupervised.attribute.Remove-R84-86,122-weka.filters.unsupervised.attribute.ReplaceMissingValues-weka.filters.unsupervised.instance.RemoveRange-V-R1-560'

@attribute RPI numeric
@attribute W875RX1 numeric
@attribute DPCERA3M086SBEA numeric
@attribute CMRMTSPLx numeric
@attribute RETAILx numeric
@attribute INDPRO numeric
@attribute IPFPNSS numeric
@attribute IPFINAL numeric
@attribute IPCONGD numeric
@attribute IPDCONGD numeric
@attribute IPNCONGD numeric
@attribute IPBUSEQ numeric
@attribute IPMAT numeric
@attribute IPDMAT numeric
@attribute IPNMAT numeric
@attribute IPMANSICS numeric
@attribute IPB51222S numeric
@attribute IPFUELS numeric
@attribute CUMFNS numeric
@attribute HWI numeric
@attribute HWIURATIO numeric
@attribute CLF16OV numeric
@attribute CE16OV numeric
@attribute UEMPMEAN {'\'(-inf-14.9]\'','\'(14.9-27.8]\'','\'(27.8-inf)\''}
@attribute UEMPLT5 numeric
@attribute UEMP5TO14 numeric
@attribute UEMP15OV numeric
@attribute UEMP15T26 numeric
@attribute UEMP27OV numeric
@attribute CLAIMSx numeric
@attribute PAYEMS numeric
@attribute USGOOD numeric
@attribute CES1021000001 numeric
@attribute USCONS numeric
@attribute MANEMP numeric
@attribute DMANEMP numeric
@attribute NDMANEMP numeric
@attribute SRVPRD numeric
@attribute USTPU numeric
@attribute USWTRADE numeric
@attribute USTRADE numeric
@attribute USFIRE numeric
@attribute USGOVT numeric
@attribute CES0600000007 numeric
@attribute AWOTMAN numeric
@attribute AWHMAN numeric
@attribute HOUST numeric
@attribute HOUSTNE numeric
@attribute HOUSTMW numeric
@attribute HOUSTS numeric
@attribute HOUSTW numeric
@attribute PERMIT numeric
@attribute PERMITNE numeric
@attribute PERMITMW numeric
@attribute PERMITS numeric
@attribute PERMITW numeric
@attribute AMDMNOx numeric
@attribute ANDENOx numeric
@attribute AMDMUOx numeric
@attribute BUSINVx numeric
@attribute ISRATIOx numeric
@attribute M1SL numeric
@attribute M2SL numeric
@attribute M2REAL numeric
@attribute BOGMBASE numeric
@attribute TOTRESNS numeric
@attribute NONBORRES numeric
@attribute BUSLOANS numeric
@attribute REALLN numeric
@attribute NONREVSL numeric
@attribute CONSPI numeric
@attribute 'S&P 500' numeric
@attribute 'S&P div yield' numeric
@attribute 'S&P PE ratio' numeric
@attribute FEDFUNDS numeric
@attribute CP3Mx numeric
@attribute TB3MS numeric
@attribute TB6MS numeric
@attribute GS1 numeric
@attribute GS5 numeric
@attribute GS10 numeric
@attribute AAA numeric
@attribute BAA numeric
@attribute T1YFFM numeric
@attribute T5YFFM numeric
@attribute T10YFFM numeric
@attribute AAAFFM numeric
@attribute BAAFFM numeric
@attribute EXSZUSx numeric
@attribute EXJPUSx numeric
@attribute EXUSUKx numeric
@attribute EXCAUSx numeric
@attribute WPSFD49207 numeric
@attribute WPSFD49502 numeric
@attribute WPSID61 numeric
@attribute WPSID62 numeric
@attribute OILPRICEx numeric
@attribute PPICMM numeric
@attribute CPIAUCSL numeric
@attribute CPIAPPSL numeric
@attribute CPITRNSL numeric
@attribute CPIMEDSL numeric
@attribute CUSR0000SAC numeric
@attribute CUSR0000SAD numeric
@attribute CUSR0000SAS numeric
@attribute CPIULFSL numeric
@attribute CUSR0000SA0L2 numeric
@attribute CUSR0000SA0L5 numeric
@attribute PCEPI numeric
@attribute DDURRG3M086SBEA numeric
@attribute DNDGRG3M086SBEA numeric
@attribute DSERRG3M086SBEA numeric
@attribute CES0600000008 numeric
@attribute CES2000000008 numeric
@attribute CES3000000008 numeric
@attribute DTCOLNVHFNM numeric
@attribute DTCTHFNM numeric
@attribute INVEST numeric
@attribute UNRATE {'\'(-inf-6.266667]\'','\'(6.266667-10.533333]\'','\'(10.533333-inf)\''}

@data
-1.87346,-2.013798,-1.672117,-2.124726,-1.163298,-2.328709,-2.458761,-2.390068,-3.157459,-2.154018,-3.754707,-1.441412,-2.120523,-1.444471,-3.570404,-2.229132,-2.561668,-3.478946,-13.725261,-2.241725,3.909014,-3.838839,-3.805378,'\'(-inf-14.9]\'',-3.563547,-2.358978,-1.383827,-1.754967,-1.103204,-1.646155,-3.395097,-10.730795,-4.866976,-3.379881,-6.453213,-6.586534,-6.036704,-2.700257,-3.706558,-4.303618,-3.393801,-2.886615,-3.910725,-25.689119,-2.449538,-25.123993,-3.740282,-2.453158,-2.719437,-3.51928,-3.126986,-3.612324,-2.653105,-2.952157,-2.934438,-3.090039,-1.539944,-1.837755,-1.283541,-1.325513,4.343581,-0.499087,-0.935794,-1.771497,-0.692391,-0.56148,-0.550992,-1.069879,-0.934333,-0.975901,-6.94309,-0.773841,-0.716278,-1.731444,-0.768343,-0.85184,-0.758612,-0.803945,-0.856891,-1.116071,-1.291951,-1.77075,-1.972839,1.23993,0.244312,0.009851,-0.517908,-0.989857,2.345026,-1.862429,6.144692,18.016357,-1.760684,-1.681344,-1.6912,-1.534173,-0.921366,-1.669776,-1.578646,-3.062397,-1.664068,-1.213464,-1.907638,-2.647254,-1.386738,-1.580509,-1.664429,-1.615108,-1.663206,-3.501988,-1.831186,-1.388625,-0.847358,-0.980561,-0.805676,-0.977591,-1.051117,-0.892547,'\'(-inf-6.266667]\''
-1.372834,-1.419883,-1.345819,-1.416282,-1.070886,-1.700958,-1.785003,-1.763872,-2.024382,-1.669383,-2.18912,-1.35083,-1.574636,-1.232887,-2.449742,-1.667154,-2.011924,-1.849732,0.177657,-1.520668,-0.943511,-1.717807,-1.705657,'\'(14.9-27.8]\'',-1.408532,-1.054439,-0.611815,-0.752586,-0.499792,-0.285111,-1.738937,-1.473595,0.316104,-1.467814,-0.311761,-0.628207,0.158379,-1.640161,-1.812617,-1.998051,-1.875366,-1.758805,-2.120348,-0.296061,-1.743873,-0.334687,0.595247,2.675809,1.805782,-0.75993,0.051618,0,0,0,-0,0,-1.367632,-0,-1.179504,-1.206679,0.737132,-0.471866,-0.888578,-1.192932,-0.666682,-0.549747,-0.540564,-1.033752,-0.923614,-0.930755,-0.544308,-0.734413,0.300357,-0.127154,-0.63517,-0.469142,-0.494896,-0.45218,-0.445698,-0.464531,-0.596405,-0.980097,-0.986718,1.080561,0.64308,0.348671,-0.179751,-0.292841,1.793845,1.651935,1.843921,-1.12852,-1.34553,-1.291882,-1.32201,-1.194009,-1.022209,-1.310101,-1.308209,-1.819488,-1.339897,-1.127649,-1.446542,-1.665857,-1.235693,-1.31052,-1.344893,-1.322746,-1.383484,-1.561742,-1.440651,-1.269715,-1.322141,-1.36836,-1.347045,-0.933172,-1.015128,-0.841497,'\'(-inf-6.266667]\''
-1.370886,-1.417724,-1.340759,-1.411065,-1.070207,-1.68504,-1.773438,-1.756874,-2.014511,-1.66593,-2.1719,-1.347633,-1.551597,-1.216168,-2.426295,-1.653563,-2.013921,-1.875667,0.399098,-1.48661,-0.871275,-1.726768,-1.711706,'\'(14.9-27.8]\'',-1.436002,-1.060043,-0.67786,-0.835976,-0.552789,-0.32308,-1.732309,-1.427287,0.251681,-1.476133,-0.263835,-0.560677,0.176213,-1.63651,-1.805231,-1.992025,-1.86656,-1.757871,-2.117916,-0.361507,-1.602741,-0.271449,0.621475,2.616514,1.977498,-0.743407,-0.003502,0,0,0,-0,0,-1.359624,-0,-1.176924,-1.206269,0.567777,-0.471763,-0.888393,-1.190459,-0.667086,-0.55002,-0.540749,-1.033743,-0.923443,-0.930245,-0.502657,-0.735075,0.354049,-0.13045,-0.649042,-0.480917,-0.533489,-0.439271,-0.391275,-0.480738,-0.617065,-0.972638,-0.979846,1.386019,0.64308,0.342396,-0.142765,-0.257739,1.794727,1.651935,1.849411,-1.091967,-1.343998,-1.291882,-1.32051,-1.196667,-1.022209,-1.310101,-1.308327,-1.822692,-1.338505,-1.12708,-1.446542,-1.665857,-1.234799,-1.31052,-1.344893,-1.322746,-1.383026,-1.560494,-1.440396,-1.269285,-1.320914,-1.367268,-1.345678,-0.933172,-1.015128,-0.841938,'\'(-inf-6.266667]\''
-1.367624,-1.413333,-1.336115,-1.413469,-1.069429,-1.673104,-1.76818,-1.752877,-2.014511,-1.652968,-2.18051,-1.345016,-1.532103,-1.201208,-2.40583,-1.641782,-2.008928,-1.828122,0.582953,-1.431799,-0.74734,-1.713686,-1.692538,'\'(14.9-27.8]\'',-1.566484,-1.139615,-0.715046,-0.861503,-0.592158,-0.428813,-1.72202,-1.339105,0.250949,-1.455016,-0.20485,-0.47473,0.194046,-1.631883,-1.795206,-1.983932,-1.852272,-1.753197,-2.11438,-0.165169,-1.320475,-0.208211,0.498202,2.379337,1.411846,-0.770945,0.272099,0,0,0,-0,0,-1.355581,-0,-1.174228,-1.205656,0.483099,-0.471702,-0.888141,-1.18681,-0.667144,-0.550201,-0.541026,-1.033854,-0.923333,-0.92979,-0.484037,-0.733992,0.294536,-0.0611,-0.546387,-0.454422,-0.501328,-0.439271,-0.370111,-0.471014,-0.606735,-0.976367,-0.99359,0.987595,0.387266,0.129065,-0.343546,-0.463334,1.80234,1.651935,1.856078,-1.115703,-1.343998,-1.293303,-1.32051,-1.195338,-1.023217,-1.304672,-1.308679,-1.822692,-1.335723,-1.126512,-1.448231,-1.659743,-1.234799,-1.31052,-1.344893,-1.322746,-1.382721,-1.557795,-1.440809,-1.26877,-1.319688,-1.36836,-1.342944,-0.932952,-1.014979,-0.84317,'\'(-inf-6.266667]\''
-1.364314,-1.409089,-1.337908,-1.399162,-1.069371,-1.655195,-1.75556,-1.740884,-1.99313,-1.64865,-2.150374,-1.338621,-1.510837,-1.189329,-2.362997,-1.625469,-2.005932,-1.836767,0.852362,-1.39721,-0.619138,-1.705224,-1.676066,'\'(-inf-14.9]\'',-1.518412,-1.317813,-0.809951,-1.069127,-0.629257,-0.493963,-1.712331,-1.240577,0.259002,-1.408942,-0.153237,-0.398332,0.207916,-1.628514,-1.789578,-1.97269,-1.862555,-1.74899,-2.112169,-0.034277,-1.179342,-0.144973,0.419518,1.564038,1.189625,-0.589191,0.400713,0,0,0,-0,0,-1.353543,-0,-1.172418,-1.204046,0.483099,-0.471702,-0.887989,-1.185221,-0.666913,-0.549929,-0.540841,-1.033325,-0.92316,-0.92937,-0.480539,-0.73326,0.259251,-0.028452,-0.501996,-0.433816,-0.453088,-0.39409,-0.336853,-0.428874,-0.561972,-0.939073,-0.990154,0.921191,0.364695,0.110242,-0.375248,-0.538551,1.80218,1.651935,1.863528,-1.145135,-1.343998,-1.291882,-1.32051,-1.19268,-1.023217,-1.307386,-1.308562,-1.819488,-1.334332,-1.126512,-1.448231,-1.659743,-1.233906,-1.309341,-1.344893,-1.322746,-1.381805,-1.555636,-1.44046,-1.267739,-1.318461,-1.366175,-1.341577,-0.932183,-1.014583,-0.84306,'\'(-inf-6.266667]\''
-1.361349,-1.405066,-1.331919,-1.394183,-1.068635,-1.64226,-1.748202,-1.732888,-1.986552,-1.634826,-2.150374,-1.330485,-1.490456,-1.175247,-2.350188,-1.614597,-1.99495,-1.873507,1.01659,-1.362088,-0.529631,-1.710251,-1.678335,'\'(-inf-14.9]\'',-1.539014,-1.23824,-0.851022,-1.09976,-0.671654,-0.491443,-1.705103,-1.186879,0.294142,-1.407662,-0.111456,-0.341716,0.22674,-1.624737,-1.78184,-1.963247,-1.845255,-1.745251,-2.109738,0.031169,-1.179342,-0.018497,0.178218,1.341684,0.825991,-0.859068,0.474207,0,0,0,-0,0,-1.361397,-0,-1.172756,-1.203351,0.398413,-0.471497,-0.887636,-1.18216,-0.666913,-0.55002,-0.541026,-1.0324,-0.922994,-0.928868,-0.451011,-0.73259,0.228816,-0.002064,-0.518643,-0.392602,-0.488464,-0.374727,-0.264289,-0.35432,-0.496549,-0.88686,-0.955794,1.319615,0.582889,0.267103,-0.269574,-0.458319,1.80234,1.651935,1.859607,-1.147984,-1.342466,-1.293303,-1.317508,-1.195338,-1.023217,-1.304672,-1.307857,-1.816285,-1.334332,-1.125944,-1.446542,-1.656686,-1.233012,-1.308162,-1.344893,-1.322746,-1.381561,-1.552061,-1.441095,-1.267252,-1.317234,-1.365083,-1.341577,-0.93127,-1.014109,-0.843764,'\'(-inf-6.266667]\''
-1.359772,-1.403226,-1.330094,-1.394254,-1.067773,-1.641268,-1.741892,-1.726892,-1.99313,-1.629643,-2.163286,-1.32438,-1.495773,-1.178327,-2.354503,-1.613688,-1.990955,-1.873507,0.990401,-1.329095,-0.45678,-1.707129,-1.673403,'\'(-inf-14.9]\'',-1.479954,-1.285311,-0.852132,-1.057214,-0.692096,-0.438576,-1.700968,-1.145497,0.330745,-1.399343,-0.084011,-0.308292,0.244574,-1.623258,-1.778498,-1.956593,-1.841988,-1.741979,-2.111948,-0.034277,-1.179342,-0.081735,0.191332,1.252743,0.70478,-0.68833,0.400713,0,0,0,-0,0,-1.353047,-0,-1.171908,-1.202123,0.483099,-0.471395,-0.887316,-1.179746,-0.666798,-0.550111,-0.541303,-1.031368,-0.922854,-0.928252,-0.404221,-0.73298,0.262503,-0.048768,-0.382694,-0.313118,-0.369471,-0.31341,-0.231031,-0.305697,-0.486219,-0.853294,-0.928307,0.814944,0.327075,-0.021521,-0.480922,-0.663914,1.793284,1.651935,1.855685,-1.166972,-1.343998,-1.291882,-1.317508,-1.197996,-1.023217,-1.303315,-1.307034,-1.813082,-1.33294,-1.125376,-1.446542,-1.656686,-1.233012,-1.306983,-1.343599,-1.321507,-1.380218,-1.547776,-1.439793,-1.266192,-1.317234,-1.362898,-1.34021,-0.929876,-1.013289,-0.845091,'\'(-inf-6.266667]\''
-1.36007,-1.403692,-1.331791,-1.385321,-1.067805,-1.66216,-1.74084,-1.719894,-1.975037,-1.615819,-2.14822,-1.323802,-1.543622,-1.220129,-2.347703,-1.628188,-1.980968,-1.916727,0.672365,-1.325903,-0.492742,-1.698979,-1.668077,'\'(-inf-14.9]\'',-1.385182,-1.191169,-0.893202,-1.092953,-0.732223,-0.415243,-1.697086,-1.11249,0.406149,-1.407662,-0.055747,-0.269411,0.256462,-1.621495,-1.776915,-1.954614,-1.840966,-1.739175,-2.105317,-0.230615,-1.320475,-0.271449,0.306736,1.504744,0.987606,-0.605715,0.253726,0,0,0,-0,0,-1.367313,-0,-1.172798,-1.201169,0.737132,-0.471292,-0.887131,-1.178334,-0.666509,-0.549929,-0.541118,-1.03072,-0.922739,-0.927623,-0.326586,-0.731204,0.167953,0.004495,-0.360499,-0.268961,-0.372687,-0.216594,-0.13428,-0.279765,-0.46556,-0.849565,-0.914563,1.133684,0.327075,-0.03407,-0.517908,-0.683972,1.791762,1.651935,1.854117,-1.175042,-1.34553,-1.293303,-1.319009,-1.201982,-1.023217,-1.307386,-1.306564,-1.809878,-1.331549,-1.125376,-1.446542,-1.653628,-1.232118,-1.306983,-1.342306,-1.320269,-1.379241,-1.546731,-1.439189,-1.265133,-1.317234,-1.361806,-1.34021,-0.928668,-1.01249,-0.844895,'\'(-inf-6.266667]\''
-1.36297,-1.4072,-1.32878,-1.423153,-1.067195,-1.691009,-1.74715,-1.721893,-1.973388,-1.635691,-2.126694,-1.326125,-1.601219,-1.265447,-2.353014,-1.658998,-1.975974,-1.886472,0.047921,-1.371135,-0.585508,-1.70232,-1.673567,'\'(-inf-14.9]\'',-1.363207,-1.1172,-0.893202,-1.070829,-0.742065,-0.303511,-1.711857,-1.348957,-0.02065,-1.408942,-0.228198,-0.569545,0.275286,-1.621117,-1.772167,-1.918012,-1.835966,-1.737306,-2.103549,-0.165169,-1.179342,-0.208211,-0.000134,0.896976,0.775487,-0.930668,0.290472,0,0,0,-0,0,-1.375476,-0,-1.172831,-1.200964,0.991166,-0.471251,-0.886929,-1.176509,-0.666567,-0.55002,-0.54121,-1.030195,-0.922645,-0.926995,-0.210416,-0.731469,0.192902,-0.038534,-0.352175,-0.271905,-0.314798,-0.200458,-0.12521,-0.283007,-0.45523,-0.864483,-0.911127,1.133684,0.296979,-0.03407,-0.554894,-0.694001,1.795608,1.651935,1.849803,-1.18786,-1.347062,-1.296146,-1.319009,-1.205968,-1.023217,-1.311458,-1.306211,-1.806675,-1.331549,-1.124807,-1.446542,-1.656686,-1.231224,-1.305804,-1.342306,-1.320269,-1.37857,-1.55675,-1.438078,-1.264274,-1.317234,-1.359621,-1.342944,-0.927453,-1.011693,-0.846001,'\'(-inf-6.266667]\''
-1.362579,-1.4072,-1.32372,-1.412793,-1.068451,-1.692005,-1.751353,-1.724893,-1.978326,-1.656425,-2.115931,-1.328159,-1.602101,-1.266767,-2.351123,-1.660811,-1.959995,-1.899437,-0.026521,-1.388696,-0.676815,-1.698792,-1.676,'\'(-inf-14.9]\'',-1.370074,-0.935641,-0.889872,-0.999352,-0.769321,-0.365215,-1.708953,-1.34748,-0.126801,-1.430699,-0.206898,-0.537485,0.28024,-1.618316,-1.774453,-1.93357,-1.837273,-1.734501,-2.090729,-0.165169,-1.320475,-0.208211,0.288376,1.07486,0.896698,-0.457007,0.290472,0,0,0,-0,0,-1.370992,-0,-1.171156,-1.201496,0.906488,-0.471435,-0.886879,-1.177333,-0.666567,-0.55002,-0.541118,-1.029983,-0.922561,-0.9264,-0.151161,-0.733299,0.31292,-0.165334,-0.28004,-0.077612,-0.102539,0.0674,0.050152,-0.176037,-0.369147,-0.830917,-0.880203,1.55867,0.349647,-0.040345,-0.644717,-0.779248,1.804183,1.654501,1.838431,-1.201627,-1.340934,-1.289039,-1.319009,-1.203311,-1.023217,-1.304672,-1.305388,-1.803472,-1.330158,-1.124239,-1.443164,-1.653628,-1.230331,-1.305804,-1.341012,-1.31903,-1.377349,-1.553106,-1.436553,-1.263386,-1.317234,-1.358529,-1.341577,-0.926876,-1.011149,-0.846269,'\'(-inf-6.266667]\''
-1.361928,-1.406489,-1.327179,-1.411638,-1.067757,-1.697975,-1.753456,-1.728891,-1.984903,-1.640875,-2.139606,-1.330194,-1.60919,-1.272048,-2.377946,-1.667154,-1.957997,-1.910247,-0.185681,-1.416367,-0.758289,-1.690174,-1.671365,'\'(-inf-14.9]\'',-1.166797,-0.916588,-0.896532,-1.021476,-0.768564,-0.18579,-1.711163,-1.410045,-0.104106,-1.453096,-0.246221,-0.585233,0.254481,-1.616521,-1.773926,-1.929883,-1.83446,-1.73123,-2.084982,-0.426954,-1.320475,-0.397925,-0.196846,1.252743,0.320945,-1.101406,0.079178,0,0,0,-0,0,-1.367798,-0,-1.169692,-1.201101,0.991166,-0.471538,-0.886912,-1.179805,-0.666567,-0.55002,-0.541118,-1.029797,-0.922454,-0.925771,-0.089292,-0.733338,0.325632,-0.203277,-0.219002,-0.048173,-0.099323,0.012538,-0.010318,-0.234384,-0.420797,-0.81227,-0.845844,1.000876,0.048689,-0.272499,-0.734539,-0.839422,1.815162,1.655786,1.843529,-1.220141,-1.34553,-1.294725,-1.319009,-1.205968,-1.023217,-1.3006,-1.304213,-1.803472,-1.328766,-1.124239,-1.443164,-1.653628,-1.229437,-1.304625,-1.341012,-1.31903,-1.376219,-1.554624,-1.435155,-1.262383,-1.317234,-1.356344,-1.342944,-0.926375,-1.010718,-0.846706,'\'(-inf-6.266667]\''
-1.358039,-1.402416,-1.327403,-1.437347,-1.070276,-1.693001,-1.762921,-1.742883,-2.014511,-1.725543,-2.113777,-1.334264,-1.581724,-1.250487,-2.375557,-1.661717,-1.953004,-1.838927,-0.123204,-1.38231,-0.738604,-1.699167,-1.683891,'\'(-inf-14.9]\'',-1.173664,-1.014093,-0.841587,-0.904049,-0.745851,-0.006027,-1.702452,-1.319892,0.118444,-1.447337,-0.188055,-0.504061,0.277268,-1.613594,-1.770408,-1.924937,-1.83179,-1.728425,-2.080782,-0.426954,-1.743873,-0.524401,-0.036854,1.134154,0.533064,-0.787468,-0.003502,0,0,0,-0,0,-1.37747,-0,-1.169925,-1.201223,0.991166,-0.471558,-0.886811,-1.178569,-0.666451,-0.55002,-0.541026,-1.029442,-0.922363,-0.925375,-0.090863,-0.733159,0.324605,-0.221221,-0.213453,-0.065836,-0.067163,0.015765,-0.007294,-0.22466,-0.420797,-0.815999,-0.852716,0.987595,0.056213,-0.285048,-0.75039,-0.85948,1.816364,1.655786,1.836471,-1.207798,-1.347062,-1.296146,-1.317508,-1.208626,-1.023217,-1.291099,-1.304213,-1.803472,-1.328766,-1.123671,-1.443164,-1.653628,-1.229437,-1.304625,-1.341012,-1.31903,-1.375914,-1.552904,-1.43614,-1.26161,-1.317234,-1.355251,-1.342944,-0.926499,-1.01047,-0.846931,'\'(-inf-6.266667]\''
-1.352749,-1.3954,-1.32798,-1.402383,-1.070707,-1.642263,-1.736633,-1.722894,-1.9701,-1.64865,-2.107321,-1.330485,-1.504634,-1.187127,-2.340476,-1.610973,-1.950008,-1.864862,0.776978,-1.420624,-0.683297,-1.684773,-1.657227,'\'(-inf-14.9]\'',-1.294532,-1.107114,-0.875997,-0.992545,-0.753422,-0.37539,-1.685408,-1.163725,0.18067,-1.42622,-0.076228,-0.321935,0.283212,-1.606574,-1.760911,-1.914415,-1.824916,-1.724686,-2.062215,-0.165169,-1.461608,-0.271449,0.448369,1.28239,1.230029,-0.280761,0.125112,0,0,0,-0,0,-1.362378,-0,-1.170926,-1.199873,0.737132,-0.471661,-0.886694,-1.178392,-0.666104,-0.549656,-0.540841,-1.028706,-0.922152,-0.924254,-0.017114,-0.731734,0.247875,-0.180186,-0.216227,-0.004016,0.042182,0.115808,0.092481,-0.140381,-0.365704,-0.80854,-0.845844,1.439143,0.25936,-0.178382,-0.734539,-0.844436,1.803302,1.655786,1.82804,-1.203525,-1.347062,-1.296146,-1.317508,-1.211283,-1.023217,-1.293814,-1.303508,-1.803472,-1.328766,-1.123671,-1.443164,-1.653628,-1.228543,-1.303446,-1.339718,-1.317791,-1.375365,-1.551926,-1.436013,-1.26098,-1.313553,-1.356344,-1.337476,-0.926904,-1.009975,-0.84674,'\'(-inf-6.266667]\''
-1.351064,-1.392506,-1.32657,-1.390025,-1.06821,-1.61938,-1.714552,-1.697908,-1.925688,-1.574349,-2.098711,-1.320895,-1.481595,-1.170847,-2.318234,-1.589221,-1.956999,-1.888632,1.131391,-1.19393,-0.327201,-1.685772,-1.657029,'\'(-inf-14.9]\'',-1.320628,-1.193411,-0.878772,-0.99765,-0.754936,-0.355578,-1.682252,-1.131211,0.118444,-1.449897,-0.029532,-0.253723,0.297083,-1.605504,-1.756163,-1.917832,-1.817473,-1.722349,-2.075699,-0.099723,-1.038209,-0.081735,0.07855,1.549215,0.856294,-0.754422,-0.20561,-0.739663,1.193063,-0.041828,-1.3085,-0.789155,-1.369175,-0,-1.174039,-1.198796,0.652455,-0.47164,-0.886626,-1.176803,-0.666567,-0.549838,-0.540841,-1.028291,-0.922086,-0.924249,-0.035103,-0.732536,0.351605,-0.234372,-0.216227,0.004816,-0.002842,0.080309,0.059222,-0.169554,-0.355374,-0.797352,-0.825228,1.293054,0.191644,-0.159559,-0.718688,-0.814349,1.805545,1.657072,1.830785,-1.194506,-1.34553,-1.294725,-1.319009,-1.209954,-1.023217,-1.287027,-1.303978,-1.803472,-1.330158,-1.123102,-1.443164,-1.653628,-1.228543,-1.302267,-1.339718,-1.31903,-1.375639,-1.556513,-1.436966,-1.260722,-1.3111,-1.355251,-1.334741,-0.927089,-1.00996,-0.84721,'\'(-inf-6.266667]\''
-1.350463,-1.391941,-1.324361,-1.379366,-1.067857,-1.627337,-1.71981,-1.700904,-1.942136,-1.584715,-2.118084,-1.319151,-1.492228,-1.177888,-2.327243,-1.595564,-1.957997,-1.869182,0.962345,-1.19393,-0.1908,-1.686178,-1.648054,'\'(-inf-14.9]\'',-1.604942,-1.205739,-0.919842,-1.06232,-0.782192,-0.381132,-1.674709,-1.07505,0.154316,-1.429419,0.002419,-0.206656,0.305999,-1.601569,-1.750007,-1.913605,-1.810684,-1.717675,-2.071499,-0.361507,-1.320475,-0.271449,0.191332,1.475097,1.108818,-0.859068,0.180232,-0.750224,0.970558,-0.006764,-1.43778,-0.494856,-1.369748,-0,-1.176554,-1.197377,0.82181,-0.471661,-0.886593,-1.177215,-0.667202,-0.550383,-0.541395,-1.028095,-0.922044,-0.923927,-0.006652,-0.734288,0.523167,-0.342211,-0.221776,-0.06878,-0.128268,-0.061688,-0.052646,-0.244109,-0.43457,-0.815999,-0.825228,0.828225,0.033641,-0.291322,-0.734539,-0.80432,1.8142,1.659646,1.837647,-1.201627,-1.34553,-1.294725,-1.317508,-1.209954,-1.023217,-1.28567,-1.303508,-1.797065,-1.330158,-1.122534,-1.444853,-1.653628,-1.227649,-1.302267,-1.339718,-1.317791,-1.375151,-1.553039,-1.436934,-1.260207,-1.309873,-1.353067,-1.333374,-0.926856,-1.009723,-0.848591,'\'(-inf-6.266667]\''
-1.349479,-1.391377,-1.317154,-1.399976,-1.067962,-1.635298,-1.722965,-1.701905,-1.940492,-1.599404,-2.100865,-1.31857,-1.50552,-1.191088,-2.326601,-1.605535,-1.92804,-1.849732,0.719,-1.239695,-0.441711,-1.703351,-1.67919,'\'(-inf-14.9]\'',-1.28217,-1.109355,-0.854352,-0.880223,-0.773863,-0.20158,-1.676571,-1.189342,0.14187,-1.539485,-0.021339,-0.245537,0.305009,-1.596123,-1.752294,-1.909828,-1.812104,-1.714404,-2.027513,-0.4924,-1.461608,-0.461163,-0.842061,-0.348206,-0.679048,-1.184021,-0.141303,-1.101386,-0.078397,-0.789864,-1.596893,-0.209475,-1.371631,-0,-1.178948,-1.196327,1.075852,-0.471681,-0.886441,-1.17539,-0.66726,-0.550565,-0.541395,-1.02781,-0.921993,-0.923468,0.038576,-0.73488,0.62303,-0.383808,-0.257844,-0.118825,-0.33731,-0.284365,-0.246149,-0.367286,-0.517209,-0.842106,-0.856151,0.150903,-0.154457,-0.360341,-0.702837,-0.784262,1.813639,1.659646,1.842745,-1.20495,-1.340934,-1.289039,-1.317508,-1.205968,-1.023217,-1.287027,-1.303508,-1.797065,-1.331549,-1.121966,-1.443164,-1.656686,-1.226756,-1.302267,-1.339718,-1.317791,-1.374876,-1.559313,-1.435854,-1.260035,-1.308646,-1.342143,-1.333374,-0.926444,-1.009445,-0.84977,'\'(-inf-6.266667]\''
-1.347657,-1.38912,-1.309212,-1.3928,-1.06546,-1.64226,-1.720862,-1.700904,-1.930621,-1.600269,-2.081492,-1.321477,-1.524128,-1.205608,-2.33941,-1.611878,-1.927041,-1.791382,0.544265,-1.260981,-0.430747,-1.666507,-1.636908,'\'(-inf-14.9]\'',-1.187399,-1.241602,-0.889317,-0.972123,-0.780677,-0.245338,-1.66524,-1.153379,0.168957,-1.460775,-0.043049,-0.285782,0.310953,-1.58712,-1.723803,-1.900386,-1.784209,-1.711132,-2.025524,-0.296061,-2.026139,-0.461163,-0.369953,0.719093,0.149229,-0.974729,-0.251544,-0.940327,0.287148,-0.14702,-1.532253,-0.477019,-1.373438,-0,-1.180885,-1.196314,0.991166,-0.471722,-0.886307,-1.17645,-0.667144,-0.550474,-0.541303,-1.027195,-0.921967,-0.922686,0.093017,-0.734327,0.588848,-0.37629,-0.235648,-0.215972,-0.363039,-0.303728,-0.240102,-0.373769,-0.506879,-0.857024,-0.873331,0.071218,-0.229696,-0.391713,-0.766242,-0.849451,1.815162,1.655786,1.849803,-1.147984,-1.340934,-1.289039,-1.319009,-1.204639,-1.023217,-1.288385,-1.30198,-1.793861,-1.331549,-1.121397,-1.441475,-1.659743,-1.226756,-1.302267,-1.338425,-1.316552,-1.373167,-1.55675,-1.432169,-1.259405,-1.309873,-1.350882,-1.333374,-0.925579,-1.008935,-0.849808,'\'(-inf-6.266667]\''
-1.346388,-1.387599,-1.319749,-1.415509,-1.066922,-1.643255,-1.715603,-1.694907,-1.922399,-1.593356,-2.075031,-1.320605,-1.531217,-1.210887,-2.337143,-1.616407,-1.937028,-1.845407,0.404129,-1.27322,-0.428307,-1.66504,-1.633686,'\'(-inf-14.9]\'',-1.210748,-1.160909,-0.944263,-1.069127,-0.812476,-0.162307,-1.675908,-1.188849,0.11698,-1.449897,-0.075409,-0.335577,0.305009,-1.595494,-1.745259,-1.905422,-1.805343,-1.70973,-2.048069,-0.426954,-1.602741,-0.397925,-0.417164,0.674622,0.250238,-1.018791,-0.407718,-0.845276,0.843412,-0.193773,-1.452697,-0.575119,-1.371422,-0,-1.182016,-1.195536,1.245207,-0.471722,-0.886172,-1.175449,-0.667144,-0.550383,-0.541118,-1.026728,-0.921972,-0.922465,0.097185,-0.734725,0.622422,-0.39815,-0.255069,-0.189477,-0.343742,-0.294047,-0.188703,-0.308939,-0.482776,-0.853294,-0.845844,0.389958,-0.02655,-0.303871,-0.723972,-0.774233,1.803702,1.658359,1.842941,-1.076301,-1.340934,-1.289039,-1.319009,-1.204639,-1.023217,-1.288385,-1.301627,-1.790658,-1.33294,-1.121397,-1.441475,-1.6628,-1.225862,-1.302267,-1.337131,-1.316552,-1.372679,-1.556986,-1.432423,-1.258603,-1.308646,-1.347605,-1.333374,-0.924954,-1.008508,-0.849668,'\'(-inf-6.266667]\''
-1.345985,-1.387746,-1.319877,-1.409417,-1.067053,-1.654199,-1.726116,-1.704902,-1.932266,-1.601131,-2.085794,-1.32409,-1.543622,-1.223209,-2.335868,-1.625469,-1.932035,-1.854052,0.182333,-1.294506,-0.536998,-1.655423,-1.630036,'\'(-inf-14.9]\'',-1.183279,-1.03987,-0.912627,-0.984035,-0.807176,-0.141606,-1.679916,-1.254863,0.089161,-1.463975,-0.120058,-0.39765,0.287175,-1.595273,-1.747018,-1.908749,-1.805911,-1.707393,-2.048069,-0.4924,-1.885006,-0.524401,-0.480111,0.570857,0.502761,-1.294175,-0.334224,-1.093465,0.080535,-0.509351,-1.537225,-0.592955,-1.368194,-0,-1.182473,-1.19525,1.329885,-0.471722,-0.885936,-1.173507,-0.666971,-0.550292,-0.540934,-1.026155,-0.921989,-0.922062,0.142423,-0.733136,0.517296,-0.330838,-0.402116,-0.319006,-0.610674,-0.565132,-0.445698,-0.428874,-0.551642,-0.857024,-0.852716,-0.035028,0.093833,-0.096815,-0.44922,-0.518493,1.796089,1.666098,1.836471,-1.055888,-1.340934,-1.289039,-1.317508,-1.209954,-1.023217,-1.287027,-1.301157,-1.790658,-1.33294,-1.121397,-1.441475,-1.665857,-1.225862,-1.302267,-1.337131,-1.316552,-1.372465,-1.562822,-1.43255,-1.25803,-1.308646,-1.347605,-1.333374,-0.924048,-1.007755,-0.849994,'\'(-inf-6.266667]\''
-1.345037,-1.386544,-1.31882,-1.414312,-1.06802,-1.657186,-1.731375,-1.7099,-1.945425,-1.628778,-2.081487,-1.327287,-1.542736,-1.221007,-2.347913,-1.627283,-1.924045,-1.806507,0.094129,-1.329095,-0.611483,-1.661324,-1.638552,'\'(-inf-14.9]\'',-1.22311,-1.037628,-0.875442,-0.87682,-0.804148,-0.084228,-1.681242,-1.289348,-0.049201,-1.462055,-0.141768,-0.426981,0.277268,-1.594392,-1.747897,-1.909648,-1.805201,-1.703654,-2.045859,-0.426954,-1.885006,-0.524401,-0.611253,0.422621,0.331046,-1.371283,-0.416905,-0.985212,0.763945,-0.380782,-1.621754,-0.557283,-1.374044,-0,-1.183954,-1.194732,1.414563,-0.471599,-0.885633,-1.16868,-0.666682,-0.550111,-0.540749,-1.026106,-0.921984,-0.921731,0.161124,-0.734242,0.593302,-0.370907,-0.427086,-0.442647,-0.662131,-0.574813,-0.494074,-0.535843,-0.637724,-0.871942,-0.866459,-0.127994,-0.086742,-0.197206,-0.422801,-0.493421,1.794887,1.646812,1.847647,-1.073928,-1.339402,-1.287618,-1.319009,-1.209954,-1.023217,-1.287027,-1.301862,-1.787455,-1.33294,-1.120829,-1.443164,-1.665857,-1.224968,-1.301088,-1.337131,-1.316552,-1.37161,-1.562619,-1.431629,-1.257286,-1.307419,-1.34542,-1.333374,-0.923718,-1.007135,-0.848809,'\'(-inf-6.266667]\''
-1.345882,-1.388139,-1.3193,-1.41521,-1.067694,-1.658178,-1.733478,-1.7099,-1.942136,-1.621003,-2.081487,-1.330776,-1.54628,-1.223209,-2.355486,-1.630907,-1.921049,-1.821637,-0.026236,-1.34027,-0.663315,-1.658327,-1.639012,'\'(-inf-14.9]\'',-1.172291,-0.922192,-0.872112,-0.883627,-0.796577,0.044277,-1.682315,-1.32137,0.095018,-1.480612,-0.163478,-0.446081,0.252499,-1.593416,-1.748073,-1.887795,-1.806622,-1.700382,-2.039228,-0.557846,-1.885006,-0.650877,-0.225697,0.882153,0.098724,-0.90313,0.079178,-0.998414,0.58912,-0.310653,-1.61181,-0.575119,-1.363942,-0,-1.183181,-1.194977,1.49924,-0.471374,-0.885162,-1.164324,-0.666798,-0.550111,-0.540657,-1.026194,-0.921959,-0.921546,0.185718,-0.73372,0.556964,-0.338004,-0.496447,-0.457366,-0.662131,-0.61354,-0.56966,-0.590949,-0.672157,-0.920425,-0.914563,-0.127994,-0.02655,-0.103089,-0.359397,-0.438261,1.792643,1.641705,1.851176,-1.115228,-1.340934,-1.289039,-1.319009,-1.217927,-1.023217,-1.287027,-1.301157,-1.787455,-1.33294,-1.120829,-1.441475,-1.665857,-1.224968,-1.301088,-1.337131,-1.315313,-1.370817,-1.562147,-1.430327,-1.25677,-1.306192,-1.343235,-1.332007,-0.923526,-1.006608,-0.848758,'\'(-inf-6.266667]\''
-1.345193,-1.387967,-1.316866,-1.403702,-1.067784,-1.667134,-1.74084,-1.714896,-1.948718,-1.629643,-2.087948,-1.333101,-1.558686,-1.228048,-2.3656,-1.639064,-1.914058,-1.821637,-0.227462,-1.37486,-0.692068,-1.648647,-1.626781,'\'(-inf-14.9]\'',-1.267062,-1.005127,-0.841587,-0.885329,-0.754179,0.008585,-1.683735,-1.345016,0.062074,-1.489571,-0.175766,-0.461087,0.244574,-1.593322,-1.751063,-1.900925,-1.806963,-1.697578,-2.034365,-0.754184,-2.026139,-0.840591,-0.873535,0.363327,0.189632,-1.42636,-1.078348,-1.024817,0.54144,-0.427534,-1.641644,-0.494856,-1.365176,-0,-1.182915,-1.194759,1.329885,-0.471395,-0.88491,-1.161381,-0.667029,-0.55002,-0.540564,-1.0261,-0.921927,-0.921161,0.223232,-0.735044,0.650899,-0.38832,-0.601876,-0.442647,-0.604242,-0.536087,-0.533379,-0.59419,-0.672157,-0.931614,-0.938615,0.536047,0.251836,0.13534,-0.174468,-0.282812,1.789518,1.641705,1.856078,-1.102411,-1.340934,-1.287618,-1.319009,-1.215269,-1.023217,-1.287027,-1.301157,-1.784251,-1.335723,-1.120261,-1.441475,-1.671972,-1.224074,-1.301088,-1.337131,-1.315313,-1.370542,-1.571525,-1.429977,-1.25614,-1.306192,-1.343235,-1.33064,-0.923711,-1.006391,-0.848154,'\'(-inf-6.266667]\''
-1.34363,-1.386005,-1.314368,-1.417295,-1.066943,-1.668126,-1.735582,-1.710898,-1.93391,-1.621868,-2.068575,-1.335136,-1.561344,-1.232448,-2.374181,-1.639969,-1.913059,-1.810832,-0.296801,-1.410514,-0.843783,-1.656984,-1.647659,'\'(-inf-14.9]\'',-1.144821,-0.927796,-0.726701,-0.703232,-0.678468,0.10786,-1.686418,-1.396744,0.054022,-1.491491,-0.216319,-0.517703,0.228722,-1.592692,-1.752294,-1.905152,-1.805343,-1.698045,-2.032597,-0.557846,-1.885006,-0.650877,-0.482734,1.727098,-0.012386,-1.415344,-0.389344,-1.056501,0.3984,-0.287277,-1.646616,-0.61971,-1.378021,-0,-1.184745,-1.194868,1.414563,-0.471456,-0.884725,-1.162087,-0.666913,-0.549838,-0.540288,-1.025946,-0.92188,-0.920917,0.224799,-0.735885,0.713662,-0.43015,-0.637944,-0.469142,-0.662131,-0.568359,-0.542449,-0.545568,-0.641168,-0.912966,-0.904255,0.668855,0.462506,0.273377,-0.079361,-0.167478,1.79072,1.641705,1.853921,-1.073453,-1.336339,-1.283354,-1.319009,-1.212612,-1.023217,-1.28567,-1.299512,-1.781048,-1.335723,-1.120261,-1.439786,-1.671972,-1.224074,-1.301088,-1.335837,-1.314074,-1.369993,-1.573313,-1.428992,-1.255768,-1.304966,-1.342143,-1.33064,-0.924,-1.006409,-0.846932,'\'(-inf-6.266667]\''
-1.345911,-1.389611,-1.316162,-1.424209,-1.06832,-1.680066,-1.745047,-1.720896,-1.960229,-1.645193,-2.087948,-1.335717,-1.580838,-1.247846,-2.388995,-1.654468,-1.910063,-1.841087,-0.609059,-1.423285,-0.879219,-1.639655,-1.631976,'\'(-inf-14.9]\'',-1.210748,-0.832533,-0.707831,-0.618141,-0.690582,0.148406,-1.692131,-1.472117,-0.025774,-1.504289,-0.265064,-0.585916,0.209898,-1.593574,-1.759504,-1.909289,-1.811536,-1.693838,-2.029502,-0.81963,-2.308405,-0.903829,-0.482734,1.964276,0.038118,-1.387806,-0.628199,-1.038018,0.54144,-0.39247,-1.591921,-0.655382,-1.377701,-0,-1.185814,-1.1948,1.49924,-0.471456,-0.884489,-1.159909,-0.666798,-0.549656,-0.540011,-1.025751,-0.921879,-0.920691,0.261532,-0.73453,0.613747,-0.359307,-0.646267,-0.475029,-0.639618,-0.590949,-0.530355,-0.52936,-0.627395,-0.909237,-0.914563,0.761821,0.522697,0.317298,-0.058226,-0.167478,1.789999,1.653217,1.857842,-1.082473,-1.336339,-1.283354,-1.32051,-1.212612,-1.023217,-1.297886,-1.299159,-1.784251,-1.335723,-1.119692,-1.438097,-1.675029,-1.223181,-1.301088,-1.334544,-1.314074,-1.368375,-1.559347,-1.426896,-1.255052,-1.306192,-1.342143,-1.332007,-0.924295,-1.006318,-0.846143,'\'(-inf-6.266667]\''
-1.348326,-1.393266,-1.322503,-1.418708,-1.069014,-1.695984,-1.757663,-1.731887,-1.9701,-1.668522,-2.090102,-1.341528,-1.600332,-1.264126,-2.392868,-1.667154,-1.907067,-1.828117,-0.878717,-1.462132,-0.989637,-1.641029,-1.642859,'\'(-inf-14.9]\'',-0.683326,-0.719339,-0.752786,-0.762797,-0.687554,0.095104,-1.699043,-1.59577,-0.086537,-1.551643,-0.332651,-0.668452,0.166305,-1.592566,-1.764956,-1.912706,-1.814632,-1.692436,-2.011599,-1.47409,-2.449538,-1.472972,-0.962711,-0.36303,-0.26491,-1.602606,-0.23317,-1.111947,-0.030718,-0.217149,-1.562087,-0.771318,-1.375608,-0,-1.186571,-1.196341,1.414563,-0.471497,-0.884237,-1.157555,-0.667086,-0.549383,-0.539734,-1.025229,-0.921804,-0.920552,0.312804,-0.733494,0.541502,-0.303087,-0.773892,-0.489748,-0.678211,-0.642584,-0.596872,-0.574741,-0.658384,-0.894319,-0.907691,1.080561,0.763463,0.549453,0.205958,0.073218,1.788636,1.649372,1.845686,-1.055414,-1.33787,-1.286196,-1.32051,-1.211283,-1.023217,-1.303315,-1.298807,-1.784251,-1.334332,-1.119124,-1.436408,-1.671972,-1.223181,-1.299909,-1.33325,-1.312836,-1.368283,-1.574831,-1.426038,-1.254679,-1.306192,-1.339958,-1.33064,-0.924748,-1.005943,-0.84538,'\'(6.266667-10.533333]\''
-1.343617,-1.387844,-1.321222,-1.443787,-1.06894,-1.694988,-1.758715,-1.733886,-1.981615,-1.692712,-2.083641,-1.339784,-1.59413,-1.260168,-2.387287,-1.666249,-1.898079,-1.810827,-0.904711,-1.4616,-0.999709,-1.639405,-1.642925,'\'(-inf-14.9]\'',-0.982748,-0.709252,-0.649555,-0.592613,-0.622443,0.133391,-1.700905,-1.615476,-0.127533,-1.521567,-0.36706,-0.729161,0.171259,-1.593164,-1.766187,-1.916483,-1.814235,-1.690099,-2.018893,-0.688738,-2.308405,-0.903829,-0.647972,-0.318559,0.38155,-1.173006,-0.462838,-1.064422,0.016962,-0.240525,-1.586948,-0.575119,-1.384763,-0,-1.187081,-1.196736,1.583918,-0.471415,-0.883951,-1.154847,-0.667491,-0.549383,-0.539642,-1.025314,-0.921766,-0.919955,0.324339,-0.73122,0.389282,-0.190145,-0.920938,-0.563344,-0.681427,-0.652266,-0.611989,-0.574741,-0.658384,-0.905507,-0.907691,1.71804,1.162232,0.881998,0.470143,0.338987,1.789358,1.64298,1.843725,-1.005094,-1.33787,-1.286196,-1.32201,-1.209954,-1.023217,-1.312816,-1.298454,-1.781048,-1.334332,-1.119124,-1.438097,-1.675029,-1.222287,-1.299909,-1.33325,-1.312836,-1.368192,-1.569703,-1.426197,-1.254708,-1.304966,-1.338866,-1.33064,-0.925716,-1.006289,-0.844659,'\'(6.266667-10.533333]\''
-1.341549,-1.387795,-1.319364,-1.435414,-1.069277,-1.695984,-1.757663,-1.733886,-1.973388,-1.696169,-2.070729,-1.342109,-1.599446,-1.265447,-2.380802,-1.669873,-1.898079,-1.730867,-1.010942,-1.474903,-1.045269,-1.640248,-1.649106,'\'(-inf-14.9]\'',-0.772603,-0.787704,-0.600715,-0.485398,-0.603515,0.381801,-1.704882,-1.659813,-0.172189,-1.535005,-0.392456,-0.770088,0.169277,-1.594298,-1.774453,-1.921519,-1.822785,-1.689165,-2.013809,-0.688738,-2.308405,-0.840591,-0.535191,0.837682,-0.05279,-1.095899,-0.517958,-1.085544,0.080535,-0.065204,-1.671477,-0.664301,-1.380896,-0,-1.186846,-1.197036,1.49924,-0.471313,-0.883547,-1.150079,-0.667895,-0.549656,-0.540103,-1.02542,-0.921734,-0.920289,0.246332,-0.729311,0.271824,-0.089125,-0.618523,-0.548625,-0.623538,-0.610312,-0.575707,-0.577983,-0.679044,-0.924155,-0.917999,0.4298,0.334599,0.160437,-0.132198,-0.222638,1.800737,1.64298,1.830981,-1.020759,-1.336339,-1.283354,-1.32051,-1.208626,-1.023217,-1.312816,-1.298454,-1.781048,-1.33294,-1.118556,-1.438097,-1.671972,-1.222287,-1.29873,-1.33325,-1.312836,-1.367764,-1.568961,-1.425911,-1.25425,-1.303739,-1.338866,-1.33064,-0.926602,-1.006584,-0.844495,'\'(6.266667-10.533333]\''
-1.339362,-1.384704,-1.312991,-1.418975,-1.068283,-1.691009,-1.75346,-1.732888,-1.973388,-1.696166,-2.070729,-1.3424,-1.593244,-1.265008,-2.352861,-1.664435,-1.909064,-1.834602,-0.948412,-1.458939,-1.03103,-1.631412,-1.640492,'\'(-inf-14.9]\'',-1.011592,-0.710373,-0.574629,-0.454764,-0.581559,0.144506,-1.701663,-1.649961,-0.184634,-1.520927,-0.392047,-0.773499,0.175222,-1.591716,-1.770936,-1.922778,-1.810797,-1.689165,-2.008504,-0.754184,-2.308405,-0.777353,-0.309628,0.852505,0.411853,-1.184021,-0.012689,-0.982572,0.477867,-0.322342,-1.552142,-0.557283,-1.380554,-0,-1.187416,-1.197759,1.160529,-0.471251,-0.883244,-1.146548,-0.667895,-0.549838,-0.540195,-1.025295,-0.921667,-0.920155,0.236823,-0.727792,0.183834,-0.002162,-0.762795,-0.548625,-0.633186,-0.629676,-0.590825,-0.597432,-0.692817,-0.942802,-0.935179,1.053999,0.6807,0.46161,0.116136,0.013044,1.800737,1.64298,1.826275,-1.031678,-1.33787,-1.286196,-1.319009,-1.211283,-1.023217,-1.311458,-1.298454,-1.781048,-1.33294,-1.118556,-1.438097,-1.671972,-1.222287,-1.29873,-1.33325,-1.312836,-1.368039,-1.567713,-1.42715,-1.254135,-1.303739,-1.336681,-1.33064,-0.927412,-1.006947,-0.844891,'\'(6.266667-10.533333]\''
-1.338215,-1.382521,-1.312735,-1.439242,-1.069965,-1.674096,-1.739788,-1.718897,-1.940492,-1.650377,-2.053505,-1.339784,-1.571977,-1.249606,-2.334012,-1.64722,-1.893085,-1.832442,-0.678309,-1.457342,-1.036472,-1.645026,-1.656142,'\'(14.9-27.8]\'',-1.19564,-0.765289,-0.499704,-0.408815,-0.499792,0.143529,-1.702673,-1.652916,-0.221238,-1.538205,-0.382625,-0.756446,0.17324,-1.592535,-1.777619,-1.925836,-1.82858,-1.68636,-2.004526,-0.754184,-2.167272,-0.777353,-0.69256,0.867329,-0.285112,-1.255621,-0.609826,-0.977291,0.54144,-0.509351,-1.502419,-0.52161,-1.37108,-0,-1.186564,-1.197759,1.329885,-0.47121,-0.882975,-1.14278,-0.667838,-0.549747,-0.540103,-1.025096,-0.921651,-0.920505,0.181047,-0.72646,0.114857,0.08099,-0.909841,-0.583951,-0.665347,-0.652266,-0.590825,-0.607156,-0.679044,-0.931614,-0.938615,1.757882,1.056897,0.819253,0.412023,0.273798,1.804023,1.660935,1.827451,-1.024557,-1.340934,-1.289039,-1.32051,-1.212612,-1.023217,-1.310101,-1.298807,-1.784251,-1.33294,-1.117988,-1.438097,-1.671972,-1.221393,-1.299909,-1.33325,-1.312836,-1.368314,-1.563159,-1.429882,-1.253505,-1.302512,-1.334496,-1.327906,-0.927906,-1.007056,-0.844904,'\'(6.266667-10.533333]\''
-1.334062,-1.378743,-1.309564,-1.41949,-1.068562,-1.661165,-1.733478,-1.711899,-1.924044,-1.628778,-2.040593,-1.339493,-1.549825,-1.233326,-2.313548,-1.635439,-1.870118,-1.819477,-0.505299,-1.422753,-1.017952,-1.639249,-1.653676,'\'(14.9-27.8]\'',-1.169544,-0.759685,-0.450863,-0.356058,-0.456637,0.029426,-1.697654,-1.608086,-0.220506,-1.549083,-0.338796,-0.684823,0.175222,-1.590394,-1.777091,-1.923678,-1.822842,-1.683088,-1.996789,-0.623292,-2.167272,-0.650877,-0.529945,0.896976,-0.042689,-1.002268,-0.701693,-0.911283,0.763945,-0.404158,-1.512364,-0.485938,-1.369009,-0,-1.185961,-1.197664,1.160529,-0.471087,-0.882588,-1.138836,-0.667838,-0.549747,-0.540103,-1.025193,-0.921615,-0.920409,0.133766,-0.725939,0.088797,0.124988,-0.773892,-0.628109,-0.665347,-0.658721,-0.593848,-0.639571,-0.703147,-0.924155,-0.938615,1.093841,0.612985,0.467885,0.163689,0.028087,1.807148,1.672572,1.819413,-1.031203,-1.342466,-1.291882,-1.32201,-1.216598,-1.023217,-1.3006,-1.298454,-1.781048,-1.330158,-1.117988,-1.438097,-1.668915,-1.221393,-1.29873,-1.33325,-1.312836,-1.368039,-1.558065,-1.430422,-1.253133,-1.301285,-1.333404,-1.326539,-0.928201,-1.0071,-0.844529,'\'(6.266667-10.533333]\''
-1.328954,-1.373641,-1.308315,-1.406723,-1.067857,-1.649225,-1.724017,-1.703904,-1.907596,-1.605453,-2.031978,-1.337458,-1.538306,-1.224529,-2.298835,-1.623659,-1.883098,-1.877827,-0.333178,-1.411578,-0.983769,-1.625948,-1.63579,'\'(14.9-27.8]\'',-1.041809,-0.774255,-0.470288,-0.533049,-0.404397,-0.09509,-1.691626,-1.561285,-0.20074,-1.522847,-0.318724,-0.663677,0.193055,-1.587372,-1.774102,-1.923948,-1.81824,-1.679817,-1.991485,-0.426954,-2.026139,-0.461163,-0.12603,1.386155,0.098724,-0.820514,-0.021876,-0.79775,0.795732,-0.427534,-1.43778,-0.236229,-1.365055,-0,-1.185705,-1.197787,0.906488,-0.471046,-0.882234,-1.134716,-0.667606,-0.549656,-0.539919,-1.0248,-0.921476,-0.920266,0.080356,-0.726624,0.123134,0.110553,-0.843254,-0.583951,-0.652482,-0.629676,-0.536402,-0.52936,-0.644611,-0.901778,-0.931743,1.678197,1.056897,0.731411,0.327483,0.163479,1.800737,1.672572,1.811178,-0.947178,-1.342466,-1.291882,-1.323511,-1.221913,-1.023217,-1.297886,-1.298454,-1.781048,-1.328766,-1.117419,-1.438097,-1.665857,-1.221393,-1.297551,-1.33325,-1.312836,-1.367825,-1.55486,-1.431407,-1.252503,-1.300058,-1.331219,-1.325172,-0.928133,-1.006807,-0.843409,'\'(6.266667-10.533333]\''
-1.327399,-1.37212,-1.309884,-1.42096,-1.067931,-1.639277,-1.716655,-1.697908,-1.894436,-1.592491,-2.023369,-1.336008,-1.527672,-1.215287,-2.29062,-1.613688,-1.886094,-1.739512,-0.193682,-1.38976,-0.967666,-1.636626,-1.648448,'\'(14.9-27.8]\'',-1.11323,-0.844861,-0.370942,-0.335636,-0.356699,-0.02308,-1.687018,-1.550447,-0.200008,-1.538205,-0.299062,-0.631618,0.194046,-1.583469,-1.767946,-1.918012,-1.814632,-1.67748,-1.983527,-0.361507,-1.743873,-0.461163,-0.249303,1.326861,-0.042689,-0.886606,-0.17805,-0.763426,1.050024,-0.33403,-1.422863,-0.361083,-1.367842,-0,-1.184981,-1.1975,1.075852,-0.471046,-0.882016,-1.133892,-0.667433,-0.549565,-0.539919,-1.02464,-0.921385,-0.92021,0.052133,-0.726764,0.139217,0.103557,-0.998623,-0.639884,-0.681427,-0.658721,-0.578731,-0.519636,-0.630838,-0.871942,-0.911127,2.235992,1.500809,1.107878,0.66564,0.474378,1.796971,1.67387,1.806472,-0.810459,-1.342466,-1.290461,-1.323511,-1.219256,-1.023217,-1.293814,-1.297514,-1.777845,-1.325984,-1.117419,-1.436408,-1.6628,-1.221393,-1.297551,-1.331956,-1.311597,-1.366788,-1.553208,-1.429532,-1.251987,-1.300058,-1.333404,-1.323805,-0.928387,-1.006725,-0.842971,'\'(6.266667-10.533333]\''
-1.327089,-1.369372,-1.308026,-1.395669,-1.066879,-1.63132,-1.710345,-1.691911,-1.884565,-1.590764,-2.006149,-1.334845,-1.512609,-1.207368,-2.262203,-1.602816,-1.866123,-1.771927,-0.039073,-1.357299,-0.879958,-1.636689,-1.640426,'\'(14.9-27.8]\'',-1.234098,-0.810118,-0.471398,-0.488801,-0.425596,-0.159922,-1.681494,-1.508573,-0.185366,-1.526046,-0.272847,-0.596147,0.205935,-1.580636,-1.767594,-1.905242,-1.814348,-1.674208,-1.974686,-0.361507,-1.743873,-0.397925,-0.309628,0.956271,-0.143698,-0.770945,-0.26073,-0.562762,2.067193,-0.369094,-1.368168,-0.325411,-1.357663,-0,-1.183979,-1.196886,0.82181,-0.470923,-0.881679,-1.13036,-0.667375,-0.549474,-0.539826,-1.024547,-0.92132,-0.920004,0.068761,-0.724934,0.057333,0.217186,-0.768343,-0.581007,-0.633186,-0.590949,-0.536402,-0.480738,-0.589518,-0.857024,-0.904255,1.319615,0.96661,0.662392,0.248228,0.068204,1.797852,1.67387,1.836863,-0.822327,-1.340934,-1.290461,-1.323511,-1.208626,-1.023217,-1.293814,-1.297279,-1.777845,-1.324592,-1.116851,-1.436408,-1.659743,-1.220499,-1.297551,-1.331956,-1.311597,-1.366391,-1.549733,-1.429215,-1.25173,-1.298831,-1.332311,-1.322438,-0.928702,-1.006599,-0.842129,'\'(6.266667-10.533333]\''
-1.32642,-1.368121,-1.30508,-1.391374,-1.066711,-1.632311,-1.712448,-1.695909,-1.90924,-1.632235,-2.016912,-1.331066,-1.510837,-1.20209,-2.267605,-1.609159,-1.86113,-1.845412,-0.185236,-1.341867,-0.860571,-1.646587,-1.650651,'\'(14.9-27.8]\'',-1.017086,-0.910985,-0.536889,-0.596017,-0.467236,-0.100813,-1.678654,-1.50611,-0.168529,-1.515808,-0.278172,-0.601604,0.200981,-1.57796,-1.766539,-1.910368,-1.814888,-1.671871,-1.967613,-0.688738,-1.602741,-0.777353,-0.002757,2.008747,0.129027,-0.732391,-0.15049,-0.723821,0.875198,-0.252213,-1.388057,-0.254066,-1.360483,-0,-1.184089,-1.196341,0.82181,-0.470862,-0.881359,-1.127476,-0.667202,-0.549292,-0.539642,-1.024406,-0.921266,-0.919761,0.083619,-0.725347,0.085964,0.205909,-0.801637,-0.542737,-0.668563,-0.584495,-0.536402,-0.500187,-0.610178,-0.857024,-0.900819,1.478985,1.011753,0.700039,0.311632,0.133392,1.797291,1.67387,1.855097,-0.82565,-1.342466,-1.290461,-1.323511,-1.211283,-1.023217,-1.292457,-1.296809,-1.774641,-1.323201,-1.116283,-1.436408,-1.659743,-1.220499,-1.296372,-1.331956,-1.311597,-1.365841,-1.543863,-1.429691,-1.251014,-1.298831,-1.330126,-1.325172,-0.929471,-1.006701,-0.841164,'\'(6.266667-10.533333]\''
-1.32102,-1.361203,-1.301781,-1.392623,-1.064971,-1.615402,-1.696677,-1.678917,-1.869762,-1.593356,-1.982469,-1.331357,-1.496659,-1.199888,-2.226296,-1.592849,-1.851143,-1.754637,0.063069,-1.293442,-0.778879,-1.638,-1.638223,'\'(14.9-27.8]\'',-1.083013,-0.921071,-0.564639,-0.641966,-0.48465,-0.203923,-1.674424,-1.469162,-0.202936,-1.504929,-0.252366,-0.575002,0.224759,-1.576103,-1.764253,-1.906321,-1.812275,-1.670002,-1.965624,-0.165169,-1.461608,-0.271449,-0.039477,1.386155,0.189632,-0.726884,0.042431,-0.657813,1.018237,-0.33403,-1.338334,-0.13813,-1.359007,-0,-1.183907,-1.196109,0.652455,-0.470801,-0.88109,-1.124356,-0.666971,-0.549019,-0.539365,-1.024149,-0.921222,-0.919507,0.045602,-0.72477,0.083946,0.25172,-0.696208,-0.557457,-0.662131,-0.590949,-0.539426,-0.532602,-0.630838,-0.868212,-0.897383,0.961033,0.650604,0.423964,0.095001,-0.052145,1.80234,1.67387,1.861371,-0.827549,-1.342466,-1.291882,-1.325012,-1.211283,-1.023217,-1.3006,-1.296809,-1.774641,-1.323201,-1.116283,-1.436408,-1.659743,-1.219606,-1.296372,-1.331956,-1.311597,-1.365872,-1.54582,-1.43039,-1.250727,-1.296378,-1.330126,-1.321071,-0.929691,-1.006578,-0.840061,'\'(6.266667-10.533333]\''
-1.31607,-1.355193,-1.296625,-1.380907,-1.064277,-1.601471,-1.680902,-1.660924,-1.843443,-1.560525,-1.963096,-1.32438,-1.486026,-1.191969,-2.202272,-1.578349,-1.854139,-1.730867,0.278732,-1.262577,-0.666026,-1.641622,-1.632897,'\'(14.9-27.8]\'',-1.320628,-0.942365,-0.616255,-0.704934,-0.527048,-0.213635,-1.667481,-1.40906,-0.199276,-1.50109,-0.20485,-0.512246,0.248536,-1.573018,-1.758977,-1.902724,-1.805485,-1.667197,-1.964076,-0.034277,-1.320475,-0.018497,-0.118162,1.237919,0.230036,-0.83153,-0.003502,-0.581244,1.288423,-0.298965,-1.393029,0.040234,-1.352827,-0,-1.183276,-1.195277,0.652455,-0.470657,-0.880703,-1.119824,-0.666682,-0.548928,-0.539273,-1.023957,-0.921151,-0.918963,0.050759,-0.722371,-0.002095,0.382593,-0.599102,-0.563344,-0.604242,-0.57804,-0.533379,-0.526119,-0.623951,-0.879401,-0.904255,0.522766,0.402314,0.216907,-0.10578,-0.237681,1.80234,1.67387,1.860391,-0.801915,-1.340934,-1.290461,-1.323511,-1.212612,-1.023217,-1.303315,-1.296809,-1.777845,-1.324592,-1.116283,-1.438097,-1.659743,-1.219606,-1.296372,-1.331956,-1.311597,-1.365841,-1.55594,-1.430358,-1.250298,-1.295151,-1.326849,-1.321071,-0.92976,-1.006438,-0.840097,'\'(-inf-6.266667]\''
-1.312716,-1.351562,-1.292909,-1.380324,-1.06424,-1.593514,-1.674596,-1.654928,-1.840154,-1.546701,-1.963096,-1.323508,-1.47451,-1.185368,-2.179236,-1.567473,-1.848147,-1.754637,0.427775,-1.27322,-0.644691,-1.650958,-1.638848,'\'(14.9-27.8]\'',-1.188773,-1.047715,-0.63124,-0.703232,-0.548246,-0.276054,-1.663378,-1.382457,-0.227095,-1.494691,-0.184369,-0.491101,0.267361,-1.570626,-1.758977,-1.904792,-1.803383,-1.663926,-1.958771,-0.361507,-1.320475,-0.208211,-0.170618,1.28239,0.048219,-0.770945,-0.15049,-0.557481,1.653968,-0.345718,-1.358223,-0.111375,-1.346823,-0,-1.182072,-1.195141,0.567777,-0.470575,-0.88035,-1.116351,-0.66622,-0.548655,-0.538996,-1.023133,-0.920995,-0.918501,0.062716,-0.721857,-0.000347,0.418634,-0.676786,-0.501524,-0.565649,-0.519951,-0.500121,-0.496945,-0.582632,-0.868212,-0.907691,1.040718,0.6807,0.467885,0.058015,-0.10229,1.796971,1.673351,1.849999,-0.768684,-1.340934,-1.289039,-1.32201,-1.207297,-1.023217,-1.301957,-1.296456,-1.777845,-1.325984,-1.115714,-1.436408,-1.659743,-1.218712,-1.296372,-1.331956,-1.311597,-1.365719,-1.553039,-1.431025,-1.249925,-1.295151,-1.325757,-1.319703,-0.929904,-1.005729,-0.839776,'\'(-inf-6.266667]\''
-1.313277,-1.35247,-1.292749,-1.37458,-1.063389,-1.601475,-1.683009,-1.659927,-1.851669,-1.563982,-1.971706,-1.32438,-1.480709,-1.185807,-2.223335,-1.579254,-1.835164,-1.730867,0.185391,-1.226391,-0.552018,-1.647461,-1.632009,'\'(14.9-27.8]\'',-1.234098,-1.063405,-0.70117,-0.808746,-0.596701,-0.257738,-1.662778,-1.404626,-0.227827,-1.532446,-0.179043,-0.486326,0.273305,-1.568611,-1.755987,-1.892831,-1.80327,-1.662056,-1.955456,-0.623292,-1.320475,-0.461163,-0.181109,1.578862,-0.386121,-0.870083,0.189419,-0.660454,1.558608,-0.672984,-1.348279,-0.173802,-1.347561,-0,-1.180843,-1.19435,0.567777,-0.470575,-0.880013,-1.113113,-0.666624,-0.548655,-0.538996,-1.022903,-0.92086,-0.91847,0.06039,-0.723937,0.103659,0.323638,-0.726727,-0.480917,-0.527057,-0.500588,-0.469886,-0.487221,-0.575745,-0.868212,-0.914563,1.412581,0.838703,0.593374,0.153121,-0.022058,1.798654,1.673351,1.852744,-0.757766,-1.339402,-1.287618,-1.323511,-1.207297,-1.023217,-1.301957,-1.296104,-1.781048,-1.324592,-1.115714,-1.436408,-1.659743,-1.218712,-1.295193,-1.330663,-1.311597,-1.364803,-1.55486,-1.430072,-1.249066,-1.293924,-1.32248,-1.318336,-0.930343,-1.005896,-0.839375,'\'(-inf-6.266667]\''
-1.310898,-1.349256,-1.293006,-1.377785,-1.063378,-1.586548,-1.670389,-1.65093,-1.841798,-1.55966,-1.958794,-1.320605,-1.467418,-1.180968,-2.176458,-1.564754,-1.837161,-1.715737,0.396235,-1.242888,-0.501406,-1.640592,-1.617871,'\'(14.9-27.8]\'',-1.504677,-1.111597,-0.696175,-0.808746,-0.589887,-0.286463,-1.653404,-1.319399,-0.234415,-1.479333,-0.142587,-0.431074,0.281231,-1.564708,-1.749304,-1.88096,-1.796509,-1.659719,-1.949488,-0.230615,-1.320475,-0.208211,-0.398804,0.674622,0.017917,-0.798484,-0.499585,-0.470351,1.653968,-0.041828,-1.268722,-0.209475,-1.346448,-0,-1.179527,-1.193559,0.652455,-0.470473,-0.879576,-1.109582,-0.667086,-0.54911,-0.539457,-1.023048,-0.920746,-0.91814,0.052924,-0.723041,0.069808,0.357502,-0.665689,-0.492692,-0.523841,-0.503815,-0.469886,-0.503428,-0.589518,-0.868212,-0.917999,1.120403,0.635556,0.430238,0.03688,-0.137391,1.805625,1.672961,1.859803,-0.740201,-1.33787,-1.286196,-1.32201,-1.208626,-1.023217,-1.304672,-1.295281,-1.777845,-1.323201,-1.115146,-1.434719,-1.659743,-1.218712,-1.295193,-1.329369,-1.309119,-1.363521,-1.55169,-1.427499,-1.248522,-1.293924,-1.331219,-1.316969,-0.930419,-1.005747,-0.839587,'\'(-inf-6.266667]\''
-1.307022,-1.34484,-1.288554,-1.369435,-1.061696,-1.581574,-1.663027,-1.641934,-1.830283,-1.548428,-1.945877,-1.317116,-1.466535,-1.180089,-2.174777,-1.557506,-1.829171,-1.720062,0.47882,-1.242888,-0.51943,-1.640436,-1.619351,'\'(14.9-27.8]\'',-1.206628,-1.188928,-0.741686,-0.873416,-0.6232,-0.309866,-1.650658,-1.319399,-0.251253,-1.50109,-0.126202,-0.406518,0.285194,-1.561969,-1.745611,-1.875025,-1.792049,-1.656915,-1.944404,-0.099723,-1.320475,-0.081735,0.033962,1.223096,0.108825,-0.589191,0.244539,-0.62877,1.145384,-0.39247,-1.313473,-0.111375,-1.352111,-0,-1.180426,-1.192672,0.567777,-0.470411,-0.879071,-1.105049,-0.666971,-0.549201,-0.539457,-1.02276,-0.920615,-0.91769,0.049523,-0.722986,0.075605,0.350999,-0.532515,-0.483861,-0.527057,-0.523178,-0.536402,-0.5715,-0.627395,-0.879401,-0.928307,0.190746,0.116405,0.060046,-0.232588,-0.393131,1.816043,1.671275,1.861175,-0.736878,-1.339402,-1.287618,-1.32201,-1.208626,-1.023217,-1.303315,-1.294576,-1.774641,-1.323201,-1.114578,-1.434719,-1.656686,-1.217818,-1.294014,-1.328075,-1.309119,-1.36288,-1.547338,-1.427245,-1.247949,-1.292697,-1.323572,-1.316969,-0.930233,-1.005536,-0.840048,'\'(-inf-6.266667]\''
-1.304117,-1.340645,-1.286664,-1.374955,-1.061144,-1.579587,-1.655669,-1.632941,-1.817124,-1.530286,-1.943723,-1.315372,-1.467421,-1.180529,-2.17662,-1.556597,-1.829171,-1.702772,0.452453,-1.244484,-0.516306,-1.644682,-1.623329,'\'(-inf-14.9]\'',-1.33299,-1.126166,-0.763886,-0.91426,-0.635313,-0.324647,-1.640337,-1.245996,-0.273215,-1.451816,-0.0963,-0.381279,0.32086,-1.556366,-1.731365,-1.869269,-1.780771,-1.654578,-1.939762,-0.099723,-1.320475,-0.081735,0.246411,1.638157,0.533064,-0.704853,0.538514,-0.362098,1.892367,-0.240525,-1.328389,0.281024,-1.354644,-0,-1.181635,-1.192468,0.567777,-0.470329,-0.878667,-1.101223,-0.66674,-0.549019,-0.539365,-1.022218,-0.920447,-0.917009,0.087824,-0.724731,0.168054,0.240021,-0.551936,-0.49858,-0.523841,-0.536087,-0.557567,-0.597432,-0.658384,-0.901778,-0.935179,0.190746,0.108881,0.047498,-0.227305,-0.368058,1.820691,1.673481,1.858626,-0.734505,-1.339402,-1.289039,-1.32201,-1.213941,-1.023217,-1.304672,-1.294105,-1.774641,-1.317636,-1.114578,-1.43303,-1.653628,-1.217818,-1.294014,-1.328075,-1.309119,-1.362331,-1.551116,-1.425816,-1.247663,-1.29147,-1.320295,-1.316969,-0.929677,-1.004977,-0.839884,'\'(-inf-6.266667]\''
-1.303306,-1.339689,-1.282468,-1.367746,-1.06045,-1.580582,-1.650411,-1.628943,-1.808898,-1.523376,-1.930806,-1.315372,-1.478937,-1.18889,-2.172912,-1.558411,-1.818185,-1.698447,0.379914,-1.208298,-0.44948,-1.636158,-1.612939,'\'(14.9-27.8]\'',-1.45111,-1.097027,-0.757226,-0.900645,-0.632285,-0.234172,-1.639517,-1.248459,-0.281268,-1.447337,-0.100806,-0.375822,0.302036,-1.55539,-1.737697,-1.865402,-1.785373,-1.650839,-1.931805,-0.034277,-1.320475,-0.081735,0.138875,1.697451,0.15933,-0.68833,0.43746,-0.607647,0.779839,-0.217149,-1.258777,-0.066784,-1.353873,-0,-1.182478,-1.191445,0.652455,-0.470248,-0.878331,-1.098044,-0.666682,-0.548928,-0.53918,-1.021845,-0.920258,-0.916332,0.154378,-0.728672,0.389378,0.030907,-0.668463,-0.510355,-0.536705,-0.552223,-0.545473,-0.577983,-0.648054,-0.920425,-0.942051,0.801663,0.47003,0.329847,-0.031808,-0.167478,1.807629,1.673222,1.854901,-0.581646,-1.340934,-1.290461,-1.32201,-1.213941,-1.023217,-1.306029,-1.293753,-1.774641,-1.317636,-1.114009,-1.43303,-1.650571,-1.216924,-1.292835,-1.328075,-1.30788,-1.362026,-1.550576,-1.426642,-1.246918,-1.29147,-1.323572,-1.315602,-0.928847,-1.004383,-0.839895,'\'(-inf-6.266667]\''
-1.302518,-1.338854,-1.285223,-1.373694,-1.061769,-1.58257,-1.649359,-1.629941,-1.818768,-1.538061,-1.937263,-1.312756,-1.481595,-1.193287,-2.163754,-1.560225,-1.80221,-1.696287,0.307765,-1.241291,-0.489204,-1.637313,-1.613531,'\'(14.9-27.8]\'',-1.375568,-1.130649,-0.787751,-0.902347,-0.673169,-0.205709,-1.639012,-1.281466,-0.330317,-1.488931,-0.098758,-0.376504,0.307981,-1.552778,-1.736641,-1.857578,-1.784152,-1.648034,-1.922522,-0.165169,-1.320475,-0.144973,-0.068328,1.519568,-0.133598,-0.693838,0.097551,-0.575964,0.986451,-0.182085,-1.318445,0.004561,-1.354986,-0,-1.182934,-1.190763,0.82181,-0.470288,-0.878028,-1.093865,-0.666451,-0.548837,-0.53918,-1.020978,-0.920015,-0.915837,0.200199,-0.734405,0.778417,-0.26339,-0.579681,-0.483861,-0.523841,-0.545768,-0.545473,-0.584466,-0.634281,-0.920425,-0.935179,0.376677,0.214216,0.154163,-0.200886,-0.317913,1.79657,1.672831,1.847451,-0.554587,-1.340934,-1.290461,-1.32201,-1.216598,-1.023217,-1.307386,-1.294105,-1.771438,-1.317636,-1.114009,-1.43303,-1.650571,-1.216924,-1.292835,-1.328075,-1.309119,-1.361721,-1.54383,-1.42769,-1.246345,-1.29147,-1.32248,-1.316969,-0.927913,-1.003621,-0.839402,'\'(-inf-6.266667]\''
-1.299747,-1.335641,-1.283461,-1.377778,-1.060161,-1.573617,-1.639894,-1.617948,-1.79245,-1.520784,-1.911434,-1.310433,-1.47451,-1.18889,-2.161348,-1.552068,-1.788228,-1.691967,0.405,-1.244484,-0.484446,-1.643933,-1.619679,'\'(-inf-14.9]\'',-1.383809,-1.084699,-0.804401,-0.939788,-0.679225,-0.218933,-1.635792,-1.250922,-0.382294,-1.447337,-0.097119,-0.371047,0.304018,-1.551519,-1.7384,-1.857488,-1.782817,-1.646165,-1.916775,-0.165169,-1.320475,-0.144973,0.052322,1.371332,0.108825,-0.677314,0.363966,-0.483553,0.875198,-0.065204,-1.233916,0.138333,-1.352386,-0,-1.182994,-1.190245,0.82181,-0.470309,-0.877775,-1.091157,-0.66622,-0.548655,-0.538996,-1.02075,-0.919824,-0.915492,0.210859,-0.733362,0.712248,-0.242226,-0.571357,-0.451479,-0.462736,-0.455407,-0.466862,-0.532602,-0.599848,-0.898048,-0.924871,0.682136,0.312027,0.198084,-0.185035,-0.317913,1.798012,1.672831,1.844117,-0.595887,-1.340934,-1.291882,-1.32201,-1.212612,-1.023217,-1.308744,-1.293988,-1.768234,-1.32181,-1.113441,-1.434719,-1.650571,-1.216031,-1.292835,-1.329369,-1.309119,-1.361995,-1.54221,-1.429501,-1.24603,-1.290244,-1.319202,-1.315602,-0.927213,-1.002962,-0.839158,'\'(-inf-6.266667]\''
-1.298822,-1.33488,-1.281924,-1.360365,-1.059519,-1.572622,-1.639894,-1.619947,-1.810546,-1.532016,-1.930806,-1.307527,-1.472738,-1.186249,-2.160693,-1.550255,-1.789227,-1.765447,0.394475,-1.260449,-0.575366,-1.622732,-1.603733,'\'(-inf-14.9]\'',-1.192893,-0.977108,-0.786641,-0.938086,-0.655755,-0.21017,-1.632889,-1.249444,-0.342762,-1.446057,-0.099167,-0.375822,0.305999,-1.548717,-1.736114,-1.85479,-1.780459,-1.643828,-1.908597,-0.099723,-1.461608,-0.144973,0.228051,1.519568,0.351247,-0.572668,0.49258,-0.454509,0.906985,-0.275589,-1.169276,0.263187,-1.35351,-0,-1.184042,-1.18959,0.737132,-0.470288,-0.877439,-1.088626,-0.666278,-0.548837,-0.53918,-1.020507,-0.919661,-0.914991,0.249263,-0.732154,0.637908,-0.208402,-0.510319,-0.469142,-0.494896,-0.484452,-0.494074,-0.561775,-0.610178,-0.894319,-0.921435,0.270431,0.078785,0.041223,-0.295993,-0.423218,1.801939,1.672442,1.838627,-0.602533,-1.339402,-1.289039,-1.32201,-1.208626,-1.023217,-1.310101,-1.293283,-1.774641,-1.319027,-1.113441,-1.43303,-1.647514,-1.216031,-1.292835,-1.328075,-1.30788,-1.361293,-1.541941,-1.427881,-1.245744,-1.289017,-1.319202,-1.314235,-0.92654,-1.002283,-0.839095,'\'(-inf-6.266667]\''
-1.298552,-1.334071,-1.275775,-1.372395,-1.059209,-1.566652,-1.633584,-1.615949,-1.800676,-1.521646,-1.91789,-1.307817,-1.465646,-1.182727,-2.15015,-1.543912,-1.792223,-1.702772,0.460383,-1.278009,-0.58204,-1.617362,-1.596369,'\'(-inf-14.9]\'',-1.16817,-1.028662,-0.778316,-0.798535,-0.706481,-0.232755,-1.62847,-1.222842,-0.364724,-1.442218,-0.078277,-0.34922,0.317888,-1.54601,-1.732948,-1.854611,-1.776056,-1.641491,-1.90285,-0.099723,-1.320475,-0.144973,-0.278154,0.793211,-0.254809,-0.958206,0.363966,-0.393782,0.811625,0.016612,-1.189165,0.334533,-1.345049,-0,-1.183167,-1.188608,0.82181,-0.47035,-0.877085,-1.087684,-0.66622,-0.548655,-0.538996,-1.01995,-0.919466,-0.914638,0.251312,-0.732559,0.675879,-0.256469,-0.518643,-0.457366,-0.507761,-0.503815,-0.536402,-0.565017,-0.610178,-0.905507,-0.931743,0.124342,0.093833,0.060046,-0.295993,-0.423218,1.802981,1.644001,1.832941,-0.606806,-1.334807,-1.283354,-1.32201,-1.199324,-1.023217,-1.310101,-1.291637,-1.761828,-1.316245,-1.113441,-1.429652,-1.647514,-1.216031,-1.291656,-1.325488,-1.306642,-1.358912,-1.540085,-1.420987,-1.245515,-1.289017,-1.31811,-1.314235,-0.92678,-1.002069,-0.838883,'\'(-inf-6.266667]\''
-1.295509,-1.331814,-1.278529,-1.357367,-1.057574,-1.565656,-1.636739,-1.614948,-1.803965,-1.518189,-1.926499,-1.306654,-1.465649,-1.181407,-2.161003,-1.545725,-1.792223,-1.700612,0.388839,-1.293974,-0.549639,-1.62473,-1.598933,'\'(-inf-14.9]\'',-1.323375,-1.082458,-0.819387,-0.885329,-0.723895,-0.215468,-1.626482,-1.224812,-0.382294,-1.443497,-0.077867,-0.340352,0.305999,-1.543901,-1.731541,-1.856319,-1.775601,-1.638219,-1.897324,-0.230615,-1.461608,-0.271449,0.270017,0.882153,0.320945,-0.076977,0.235352,-0.504675,1.113597,-0.263901,-1.228944,0.075906,-1.341183,-0,-1.181688,-1.187899,0.82181,-0.470268,-0.876698,-1.082328,-0.666047,-0.548564,-0.538904,-1.019362,-0.919263,-0.914093,0.285228,-0.733985,0.80447,-0.343578,-0.518643,-0.477973,-0.520625,-0.53286,-0.56059,-0.584466,-0.627395,-0.920425,-0.945487,0.018095,0.048689,0.028674,-0.317127,-0.443276,1.801458,1.637628,1.833726,-0.610129,-1.33787,-1.287618,-1.323511,-1.204639,-1.023217,-1.310101,-1.292107,-1.758624,-1.317636,-1.112873,-1.431341,-1.650571,-1.216031,-1.291656,-1.325488,-1.306642,-1.359401,-1.550171,-1.422512,-1.245143,-1.289017,-1.31811,-1.312868,-0.926464,-1.001703,-0.837867,'\'(-inf-6.266667]\''
-1.293375,-1.328551,-1.271163,-1.349055,-1.057022,-1.561678,-1.630433,-1.61095,-1.794094,-1.517328,-1.91789,-1.306654,-1.45856,-1.178327,-2.141058,-1.538474,-1.779239,-1.683322,0.469575,-1.294506,-0.625341,-1.626167,-1.607712,'\'(-inf-14.9]\'',-1.045929,-1.158668,-0.803291,-0.723655,-0.773863,-0.239642,-1.626008,-1.24501,-0.431343,-1.440938,-0.093842,-0.358769,0.29411,-1.542138,-1.73031,-1.859377,-1.772164,-1.634947,-1.890472,-0.099723,-1.320475,-0.144973,0.503448,1.28239,0.714881,-0.346853,0.896796,-0.359458,1.12949,-0.275589,-1.144415,0.414796,-1.346217,-0,-1.18169,-1.187844,0.652455,-0.470145,-0.876261,-1.077325,-0.66622,-0.54911,-0.539549,-1.018928,-0.919056,-0.913527,0.319787,-0.73097,0.617657,-0.22957,-0.507545,-0.489748,-0.49168,-0.516724,-0.554543,-0.597432,-0.630838,-0.931614,-0.955794,-0.008467,-0.011502,-0.002698,-0.354113,-0.478377,1.79681,1.637756,1.834902,-0.606806,-1.33787,-1.286196,-1.323511,-1.201982,-1.023217,-1.307386,-1.292107,-1.765031,-1.317636,-1.112873,-1.429652,-1.650571,-1.215137,-1.291656,-1.325488,-1.306642,-1.359065,-1.549396,-1.422607,-1.244656,-1.28779,-1.315925,-1.312868,-0.925915,-1.001106,-0.837879,'\'(-inf-6.266667]\''
-1.29065,-1.324945,-1.268024,-1.370368,-1.057043,-1.561678,-1.629381,-1.607954,-1.787516,-1.511279,-1.907131,-1.308399,-1.462991,-1.180529,-2.152137,-1.537569,-1.780238,-1.653062,0.44111,-1.295038,-0.587471,-1.626697,-1.604424,'\'(-inf-14.9]\'',-1.19152,-1.052198,-0.793856,-0.813852,-0.720866,-0.194964,-1.626892,-1.265209,-0.456966,-1.458215,-0.097938,-0.358087,0.283212,-1.541729,-1.729607,-1.856679,-1.771568,-1.63261,-1.894671,-0.426954,-1.320475,-0.271449,0.351324,2.39416,0.098724,-0.40193,0.327219,-0.359458,0.954664,-0.08858,-1.233916,0.530732,-1.336358,-0,-1.178375,-1.187694,0.82181,-0.470043,-0.875773,-1.071674,-0.665642,-0.548655,-0.53918,-1.018634,-0.918875,-0.913081,0.341639,-0.728945,0.512788,-0.161863,-0.510319,-0.472085,-0.478816,-0.510269,-0.55152,-0.610398,-0.651498,-0.935343,-0.969538,0.018095,-0.034074,-0.03407,-0.354113,-0.493421,1.797291,1.638265,1.837647,-0.611078,-1.339402,-1.289039,-1.323511,-1.207297,-1.023217,-1.314173,-1.292107,-1.768234,-1.317636,-1.112304,-1.431341,-1.653628,-1.215137,-1.291656,-1.325488,-1.306642,-1.359248,-1.550171,-1.424005,-1.244312,-1.28779,-1.31374,-1.312868,-0.925874,-1.000339,-0.837177,'\'(-inf-6.266667]\''
-1.287053,-1.326589,-1.268184,-1.360257,-1.056596,-1.554716,-1.618864,-1.593962,-1.767779,-1.502639,-1.879144,-1.309561,-1.459447,-1.178769,-2.158723,-1.532131,-1.752274,-1.605517,0.488314,-1.278009,-0.61901,-1.61758,-1.600314,'\'(-inf-14.9]\'',-1.194267,-0.960297,-0.763886,-0.779815,-0.695125,-0.221785,-1.624146,-1.246488,-0.468679,-1.449897,-0.087698,-0.343763,0.287175,-1.540186,-1.734883,-1.847686,-1.768755,-1.628871,-1.877431,-0.165169,-1.461608,-0.144973,-0.48798,-0.170323,-1.184095,-0.776453,0.768182,-0.327774,1.17717,-0.649607,-1.114581,0.726931,-1.337834,-0,-1.175676,-1.187449,0.82181,-0.46994,-0.875352,-1.06826,-0.666047,-0.548746,-0.539088,-1.018356,-0.918654,-0.912592,0.334477,-0.72706,0.410777,-0.1017,-0.513094,-0.457366,-0.465952,-0.494133,-0.542449,-0.603915,-0.661828,-0.946532,-0.972974,0.071218,-0.011502,-0.046619,-0.364681,-0.493421,1.804343,1.638647,1.840588,-0.605382,-1.340934,-1.289039,-1.323511,-1.211283,-1.023217,-1.311458,-1.291402,-1.761828,-1.32181,-1.111736,-1.429652,-1.659743,-1.214243,-1.291656,-1.325488,-1.305403,-1.358058,-1.553376,-1.421845,-1.243453,-1.286563,-1.314833,-1.311501,-0.925778,-1.000175,-0.836768,'\'(-inf-6.266667]\''
-1.29015,-1.324773,-1.270298,-1.350475,-1.057401,-1.543768,-1.610455,-1.585963,-1.749683,-1.493999,-1.855464,-1.305492,-1.447041,-1.173927,-2.123043,-1.524883,-1.7353,-1.553647,0.565334,-1.276413,-0.667095,-1.613958,-1.601892,'\'(-inf-14.9]\'',-1.018459,-0.926675,-0.755561,-0.844485,-0.654998,-0.26767,-1.620516,-1.260775,-0.470143,-1.465255,-0.088927,-0.33967,0.278259,-1.535653,-1.723451,-1.843099,-1.766483,-1.626067,-1.871463,-0.230615,-1.320475,-0.144973,0.068059,0.852505,-0.042689,-0.660791,0.850862,-0.422825,0.986451,-0.743112,-1.08972,0.53965,-1.335597,-0,-1.173529,-1.187012,0.652455,-0.469817,-0.874898,-1.063963,-0.666393,-0.54911,-0.539549,-1.01815,-0.918435,-0.911928,0.444424,-0.72639,0.382041,-0.093102,-0.490898,-0.483861,-0.462736,-0.487679,-0.55152,-0.577983,-0.630838,-0.953991,-0.979846,-0.074871,-0.011502,-0.040345,-0.417518,-0.543566,1.803862,1.638901,1.837843,-0.602533,-1.340934,-1.289039,-1.323511,-1.215269,-1.023217,-1.312816,-1.290932,-1.758624,-1.320419,-1.111736,-1.429652,-1.659743,-1.214243,-1.291656,-1.324194,-1.305403,-1.357539,-1.548653,-1.421368,-1.243166,-1.285336,-1.31374,-1.310134,-0.92575,-1.000067,-0.83714,'\'(-inf-6.266667]\''
-1.287508,-1.321682,-1.267447,-1.357336,-1.056554,-1.537802,-1.610455,-1.584966,-1.743105,-1.492272,-1.844705,-1.307236,-1.434636,-1.168649,-2.096408,-1.519445,-1.749282,-1.553647,0.60916,-1.260981,-0.59549,-1.608931,-1.591141,'\'(-inf-14.9]\'',-1.234098,-0.945728,-0.783311,-0.93298,-0.653484,-0.302782,-1.617676,-1.258312,-0.461358,-1.476773,-0.079915,-0.335577,0.29411,-1.532978,-1.719934,-1.837524,-1.761057,-1.622795,-1.868368,-0.165169,-1.320475,-0.144973,0.272639,1.104507,-0.022487,-0.181623,0.593634,-0.301371,0.938771,-0.065204,-1.159332,0.584241,-1.331962,-0,-1.170439,-1.186712,0.652455,-0.469756,-0.874427,-1.059254,-0.666278,-0.549201,-0.539549,-1.017971,-0.918274,-0.911285,0.491494,-0.726585,0.401818,-0.127308,-0.496447,-0.457366,-0.472384,-0.49736,-0.545473,-0.5715,-0.627395,-0.953991,-0.983282,-0.021747,0.018594,-0.021521,-0.40695,-0.538551,1.806988,1.639666,1.832353,-0.601109,-1.342466,-1.293303,-1.323511,-1.220585,-1.023217,-1.312816,-1.29058,-1.758624,-1.319027,-1.111736,-1.429652,-1.653628,-1.214243,-1.290477,-1.324194,-1.305403,-1.357936,-1.545685,-1.423274,-1.242995,-1.284109,-1.311556,-1.308767,-0.925544,-0.999876,-0.837456,'\'(-inf-6.266667]\''
-1.285898,-1.31972,-1.265398,-1.340395,-1.056092,-1.528846,-1.598886,-1.579967,-1.736523,-1.485359,-1.838244,-1.30462,-1.426661,-1.159409,-2.100941,-1.507664,-1.762261,-1.657387,0.757403,-1.276945,-0.6115,-1.600376,-1.581573,'\'(-inf-14.9]\'',-1.212122,-0.990557,-0.792191,-0.946595,-0.659541,-0.275643,-1.60947,-1.204121,-0.432807,-1.433899,-0.064349,-0.31716,0.305009,-1.528256,-1.707095,-1.831588,-1.751853,-1.619991,-1.864169,-0.034277,-1.602741,-0.144973,0.679177,2.34969,0.694679,-0.313807,0.814115,-0.222162,0.938771,0.33219,-1.054914,0.361287,-1.33378,-0,-1.168609,-1.186576,0.567777,-0.469654,-0.873989,-1.053544,-0.666104,-0.54911,-0.539457,-1.017454,-0.918072,-0.910614,0.549418,-0.724178,0.293968,-0.03957,-0.518643,-0.463254,-0.469168,-0.487679,-0.521285,-0.552051,-0.613621,-0.946532,-0.986718,0.190746,0.123929,0.053772,-0.354113,-0.50345,1.807469,1.66145,1.832549,-0.606806,-1.342466,-1.293303,-1.323511,-1.217927,-1.023217,-1.311458,-1.290932,-1.755421,-1.319027,-1.111736,-1.429652,-1.653628,-1.213349,-1.290477,-1.325488,-1.305403,-1.357966,-1.545314,-1.424069,-1.242737,-1.284109,-1.315925,-1.308767,-0.924734,-0.99927,-0.837581,'\'(-inf-6.266667]\''
-1.283379,-1.316776,-1.265045,-1.335522,-1.05677,-1.51691,-1.59468,-1.579967,-1.733234,-1.471539,-1.844705,-1.305492,-1.406281,-1.14577,-2.075437,-1.499511,-1.746286,-1.618482,0.845091,-1.295038,-0.68505,-1.596161,-1.582461,'\'(-inf-14.9]\'',-1.001977,-1.064526,-0.744461,-0.824063,-0.648941,-0.289357,-1.608333,-1.176533,-0.422558,-1.4243,-0.048374,-0.295332,0.311944,-1.528886,-1.716944,-1.831408,-1.760943,-1.615784,-1.858864,-0.034277,-1.320475,-0.144973,0.553282,1.371332,0.836092,-0.396423,0.988663,-0.058462,1.208957,0.156869,-0.935579,0.682341,-1.331356,-0,-1.166646,-1.185962,0.652455,-0.46951,-0.873518,-1.048835,-0.665989,-0.54911,-0.539549,-1.017136,-0.917798,-0.910122,0.56117,-0.723103,0.260402,-0.010673,-0.490898,-0.483861,-0.45952,-0.477997,-0.518261,-0.558534,-0.627395,-0.942802,-0.99359,0.071218,0.033641,-0.03407,-0.401667,-0.563624,1.803302,1.67881,1.830393,-0.604432,-1.340934,-1.290461,-1.32051,-1.220585,-1.023217,-1.308744,-1.29058,-1.758624,-1.317636,-1.111168,-1.429652,-1.653628,-1.213349,-1.290477,-1.324194,-1.305403,-1.357172,-1.543897,-1.423274,-1.24205,-1.282883,-1.312648,-1.3074,-0.923835,-0.998606,-0.837738,'\'(-inf-6.266667]\''
-1.280593,-1.31317,-1.259569,-1.345467,-1.055976,-1.513923,-1.592576,-1.575969,-1.723364,-1.45685,-1.842552,-1.304329,-1.402736,-1.144889,-2.062829,-1.496792,-1.742291,-1.601192,0.843046,-1.291313,-0.605708,-1.602593,-1.581343,'\'(-inf-14.9]\'',-1.209375,-0.953573,-0.794411,-0.798535,-0.728437,-0.302492,-1.606976,-1.190327,-0.410113,-1.42494,-0.055338,-0.296696,0.297083,-1.526651,-1.714482,-1.832038,-1.758131,-1.61485,-1.855769,0.031169,-1.179342,-0.018497,0.414272,0.971094,0.674477,-0.379899,0.869236,-0.071664,0.668586,0.33219,-0.970385,0.869622,-1.339442,-0,-1.167144,-1.185321,0.567777,-0.46951,-0.873131,-1.046775,-0.6657,-0.548928,-0.539457,-1.016397,-0.917425,-0.909623,0.56576,-0.723127,0.282439,-0.036465,-0.493672,-0.445591,-0.440224,-0.455407,-0.494074,-0.52936,-0.606735,-0.939073,-0.997026,0.190746,0.108881,0.009851,-0.391099,-0.563624,1.803542,1.681285,1.831569,-0.599685,-1.339402,-1.289039,-1.32051,-1.216598,-1.023217,-1.307386,-1.289404,-1.755421,-1.317636,-1.110599,-1.427963,-1.650571,-1.212456,-1.289298,-1.322901,-1.304164,-1.356104,-1.538702,-1.420924,-1.24182,-1.281656,-1.310463,-1.306032,-0.922819,-0.997742,-0.837699,'\'(-inf-6.266667]\''
-1.280259,-1.312753,-1.256622,-1.323651,-1.05473,-1.517906,-1.59258,-1.575969,-1.728301,-1.457715,-1.851161,-1.300259,-1.411597,-1.152369,-2.077144,-1.500416,-1.765258,-1.629292,0.737259,-1.260449,-0.587931,-1.592289,-1.572926,'\'(-inf-14.9]\'',-1.245086,-0.919951,-0.792746,-0.875118,-0.692096,-0.334031,-1.602715,-1.16471,-0.414505,-1.407022,-0.046326,-0.291239,0.310953,-1.524038,-1.711668,-1.830329,-1.755944,-1.612513,-1.848696,-0.034277,-1.179342,-0.081735,0.482465,1.060036,0.432055,-0.132054,0.860049,-0.135031,0.875198,0.133493,-0.920662,0.602077,-1.33205,-0,-1.167293,-1.184735,0.483099,-0.469326,-0.872677,-1.043478,-0.665353,-0.548746,-0.539273,-1.016125,-0.917148,-0.908848,0.636056,-0.723937,0.328139,-0.094334,-0.485349,-0.413209,-0.379119,-0.381181,-0.409416,-0.503428,-0.596405,-0.927884,-0.997026,0.522766,0.1465,0.009851,-0.391099,-0.578667,1.802981,1.682981,1.832745,-0.593039,-1.340934,-1.289039,-1.32051,-1.215269,-1.023217,-1.306029,-1.288464,-1.752218,-1.317636,-1.110599,-1.426274,-1.647514,-1.212456,-1.288119,-1.321607,-1.302925,-1.355127,-1.540355,-1.418446,-1.241448,-1.280429,-1.309371,-1.304665,-0.921954,-0.996978,-0.837565,'\'(-inf-6.266667]\''
-1.27818,-1.31025,-1.254572,-1.329072,-1.054867,-1.515915,-1.583115,-1.564978,-1.715142,-1.455985,-1.827481,-1.293286,-1.419572,-1.164249,-2.040535,-1.495883,-1.761263,-1.592547,0.765102,-1.275881,-0.550513,-1.597597,-1.572828,'\'(-inf-14.9]\'',-1.267062,-1.075733,-0.768326,-0.754288,-0.712538,-0.288848,-1.599054,-1.157813,-0.420362,-1.399983,-0.047145,-0.29465,0.313925,-1.520827,-1.708326,-1.824663,-1.750518,-1.609241,-1.841181,-0.034277,-1.179342,-0.081735,0.548036,1.564038,0.765386,-0.264238,0.694688,-0.164075,0.843412,0.238686,-1.005191,0.593159,-1.338418,-0,-1.167102,-1.184067,0.567777,-0.469223,-0.872256,-1.040123,-0.665469,-0.549019,-0.539549,-1.016112,-0.91694,-0.908055,0.689193,-0.722449,0.256931,-0.05026,-0.35495,-0.345501,-0.334094,-0.339227,-0.394299,-0.503428,-0.603291,-0.916696,-1.000462,-0.035028,-0.207125,-0.297597,-0.623582,-0.819364,1.797692,1.682459,1.830393,-0.577848,-1.340934,-1.290461,-1.32051,-1.216598,-1.023217,-1.303315,-1.287759,-1.749014,-1.316245,-1.110031,-1.424585,-1.647514,-1.211562,-1.288119,-1.320313,-1.302925,-1.354456,-1.541468,-1.416953,-1.241133,-1.280429,-1.307186,-1.306032,-0.921439,-0.996237,-0.838376,'\'(-inf-6.266667]\''
-1.274142,-1.305319,-1.255661,-1.33649,-1.055135,-1.505966,-1.57996,-1.561978,-1.710204,-1.440435,-1.833937,-1.294158,-1.40185,-1.150167,-2.024555,-1.48954,-1.750277,-1.573097,0.822227,-1.278009,-0.580695,-1.586825,-1.564082,'\'(-inf-14.9]\'',-1.242339,-0.991678,-0.793301,-0.89554,-0.683768,-0.293926,-1.593752,-1.135152,-0.428415,-1.392944,-0.034857,-0.273504,0.312934,-1.516987,-1.704633,-1.821696,-1.745945,-1.607371,-1.830351,-0.034277,-1.179342,-0.081735,0.873266,1.475097,0.896698,0.275515,0.869236,0.107878,1.542715,0.203622,-0.826188,0.825031,-1.332788,-0,-1.166148,-1.183303,0.652455,-0.469182,-0.871852,-1.034825,-0.665296,-0.548746,-0.539365,-1.015685,-0.916732,-0.907508,0.699952,-0.720992,0.190903,-0.009152,-0.357724,-0.298399,-0.314798,-0.319864,-0.382205,-0.480738,-0.575745,-0.909237,-0.997026,0.031376,-0.146933,-0.241127,-0.607731,-0.809335,1.79665,1.677899,1.826667,-0.592564,-1.340934,-1.290461,-1.32051,-1.217927,-1.023217,-1.3006,-1.288111,-1.749014,-1.316245,-1.110031,-1.426274,-1.647514,-1.211562,-1.288119,-1.321607,-1.302925,-1.354547,-1.52784,-1.419685,-1.240732,-1.279202,-1.307186,-1.303298,-0.921865,-0.995895,-0.837996,'\'(-inf-6.266667]\''
-1.270811,-1.301419,-1.255982,-1.314768,-1.053253,-1.499001,-1.570495,-1.55498,-1.698689,-1.43957,-1.816718,-1.288925,-1.396534,-1.145767,-2.020992,-1.481387,-1.747284,-1.566617,0.908349,-1.242356,-0.5418,-1.582142,-1.560136,'\'(-inf-14.9]\'',-1.183279,-1.061164,-0.792191,-0.842783,-0.705724,-0.307332,-1.587281,-1.118402,-0.432807,-1.396784,-0.018472,-0.257815,0.329777,-1.511604,-1.700412,-1.813782,-1.740803,-1.601295,-1.816646,0.031169,-1.179342,-0.018497,0.915231,1.801216,1.129019,0.104777,0.887609,0.110518,1.431462,0.285438,-0.841105,0.860704,-1.329087,-0,-1.165752,-1.182266,0.567777,-0.46906,-0.871465,-1.031117,-0.66518,-0.548746,-0.539273,-1.014957,-0.916533,-0.906638,0.740631,-0.720852,0.212378,-0.031148,-0.352175,-0.298399,-0.292286,-0.294047,-0.361041,-0.477496,-0.565415,-0.905507,-1.000462,0.09778,-0.154457,-0.234852,-0.613014,-0.824378,1.79665,1.676079,1.826863,-0.601584,-1.339402,-1.289039,-1.319009,-1.216598,-1.023217,-1.296528,-1.287759,-1.745811,-1.313462,-1.110031,-1.426274,-1.644456,-1.211562,-1.28694,-1.321607,-1.302925,-1.353601,-1.527604,-1.418573,-1.239902,-1.279202,-1.306094,-1.303298,-0.92148,-0.995318,-0.83761,'\'(-inf-6.266667]\''
-1.269563,-1.299726,-1.25169,-1.330389,-1.054493,-1.494027,-1.566288,-1.552981,-1.697045,-1.43093,-1.818872,-1.2866,-1.391217,-1.14313,-2.005977,-1.478668,-1.732304,-1.570937,0.906127,-1.260449,-0.619898,-1.577864,-1.561024,'\'(-inf-14.9]\'',-1.017086,-0.989436,-0.801626,-0.856398,-0.712538,-0.333246,-1.588165,-1.148453,-0.446717,-1.410222,-0.034447,-0.263954,0.300055,-1.510565,-1.697246,-1.805868,-1.737905,-1.599426,-1.815541,-0.034277,-1.179342,-0.018497,0.503448,1.252743,0.755285,-0.253223,0.713061,-0.03998,1.018237,0.495823,-0.856022,0.450469,-1.33292,-0,-1.165535,-1.181721,0.737132,-0.468855,-0.870927,-1.02576,-0.664776,-0.548655,-0.53918,-1.013934,-0.916327,-0.906182,0.765384,-0.721172,0.25574,-0.061778,-0.357724,-0.298399,-0.269774,-0.271456,-0.330806,-0.464531,-0.561972,-0.901778,-0.997026,0.25715,-0.109313,-0.216029,-0.597163,-0.809335,1.797452,1.678289,1.826863,-0.603008,-1.339402,-1.290461,-1.319009,-1.212612,-1.023217,-1.295171,-1.287406,-1.742607,-1.314853,-1.109463,-1.424585,-1.644456,-1.210668,-1.28694,-1.320313,-1.301686,-1.352899,-1.531011,-1.417207,-1.239386,-1.277975,-1.307186,-1.301931,-0.921219,-0.994808,-0.837568,'\'(-inf-6.266667]\''
-1.264787,-1.294624,-1.244772,-1.324296,-1.052101,-1.496018,-1.56524,-1.548984,-1.687179,-1.428338,-1.799499,-1.287181,-1.396534,-1.14445,-2.031569,-1.478668,-1.722317,-1.583902,0.855438,-1.210959,-0.494431,-1.585046,-1.5628,'\'(-inf-14.9]\'',-1.133833,-1.005127,-0.827712,-0.883627,-0.736008,-0.238282,-1.58482,-1.130225,-0.435004,-1.410862,-0.019291,-0.24963,0.315907,-1.508393,-1.695488,-1.797234,-1.733105,-1.594752,-1.812668,-0.165169,-1.038209,-0.081735,0.159858,0.763564,0.240137,-0.710361,1.05297,0.134281,1.145384,0.203622,-0.587519,0.709095,-1.33682,-0,-1.166322,-1.181666,0.483099,-0.468916,-0.870641,-1.024936,-0.66414,-0.54811,-0.538627,-1.012777,-0.916161,-0.905284,0.791371,-0.719964,0.22635,-0.037324,-0.385469,-0.274849,-0.269774,-0.268229,-0.309642,-0.454806,-0.558529,-0.894319,-0.99359,0.482924,-0.011502,-0.14701,-0.533759,-0.754175,1.79681,1.681155,1.824314,-0.594463,-1.340934,-1.290461,-1.319009,-1.223242,-1.023217,-1.289742,-1.286231,-1.742607,-1.313462,-1.109463,-1.422896,-1.641399,-1.209774,-1.285761,-1.31902,-1.300447,-1.352167,-1.530539,-1.415619,-1.239071,-1.276748,-1.300632,-1.300564,-0.921109,-0.993874,-0.8368,'\'(-inf-6.266667]\''
-1.262593,-1.294697,-1.242882,-1.304934,-1.05268,-1.487065,-1.554723,-1.537992,-1.670726,-1.426611,-1.777972,-1.279336,-1.389445,-1.143569,-2.001204,-1.470511,-1.699346,-1.570937,0.935907,-1.208298,-0.509856,-1.5798,-1.559051,'\'(-inf-14.9]\'',-1.091254,-1.069009,-0.799961,-0.822361,-0.725409,-0.345581,-1.580843,-1.173085,-0.457698,-1.465894,-0.018062,-0.252358,0.322842,-1.501688,-1.682825,-1.784824,-1.724895,-1.590545,-1.798301,-0.4924,-1.179342,-0.397925,0.453614,0.941447,0.856294,-0.324823,0.768182,-0.201039,0.430187,0.484135,-0.96044,0.432632,-1.314193,-0,-1.163544,-1.18093,0.483099,-0.468834,-0.870304,-1.022582,-0.664544,-0.54811,-0.538627,-1.012474,-0.915918,-0.904472,0.836465,-0.718188,0.165026,0.018433,-0.357724,-0.271905,-0.269774,-0.274683,-0.315689,-0.445082,-0.544755,-0.879401,-1.000462,0.323554,-0.06417,-0.184657,-0.565461,-0.814349,1.797131,1.677899,1.827844,-0.590191,-1.339402,-1.287618,-1.319009,-1.217927,-1.023217,-1.28567,-1.285526,-1.742607,-1.31068,-1.108895,-1.422896,-1.641399,-1.209774,-1.285761,-1.31902,-1.300447,-1.351129,-1.528515,-1.413586,-1.238613,-1.276748,-1.301724,-1.300564,-0.921199,-0.993781,-0.837038,'\'(-inf-6.266667]\''
-1.26006,-1.288221,-1.238719,-1.303157,-1.05217,-1.4801,-1.554723,-1.541986,-1.674019,-1.421428,-1.786582,-1.280789,-1.375267,-1.13565,-1.974617,-1.465073,-1.710332,-1.560132,0.97239,-1.223731,-0.496671,-1.56959,-1.545111,'\'(-inf-14.9]\'',-1.224483,-1.001764,-0.823272,-0.864907,-0.73828,-0.41716,-1.572447,-1.092292,-0.456966,-1.378866,-0.007002,-0.242809,0.335721,-1.498478,-1.678956,-1.788061,-1.717424,-1.586806,-1.794101,0.031169,-1.179342,-0.018497,1.022767,1.178625,2.199719,0.038685,0.795742,0.184447,1.558608,1.010098,-0.940551,0.664504,-1.3224,-0,-1.162329,-1.180412,0.567777,-0.468711,-0.8699,-1.017284,-0.664949,-0.548655,-0.539088,-1.012314,-0.915636,-0.903665,0.882083,-0.717456,0.151894,0.030628,-0.357724,-0.298399,-0.266558,-0.265002,-0.318712,-0.458048,-0.551642,-0.890589,-1.000462,0.310273,-0.094266,-0.197206,-0.581312,-0.814349,1.804023,1.680764,1.825099,-0.591615,-1.339402,-1.291882,-1.319009,-1.223242,-1.023217,-1.282956,-1.285878,-1.742607,-1.312071,-1.108895,-1.422896,-1.638342,-1.209774,-1.285761,-1.31902,-1.300447,-1.350427,-1.524096,-1.413395,-1.237897,-1.276748,-1.305001,-1.300564,-0.921212,-0.993602,-0.837569,'\'(-inf-6.266667]\''
-1.256953,-1.284516,-1.236637,-1.326515,-1.051365,-1.4801,-1.554723,-1.543988,-1.682241,-1.428338,-1.793043,-1.27701,-1.375267,-1.135208,-1.983814,-1.465073,-1.700345,-1.562292,0.91731,-1.209895,-0.483969,-1.568653,-1.544716,'\'(-inf-14.9]\'',-1.121471,-1.104872,-0.809951,-0.854696,-0.724652,-0.350435,-1.567902,-1.083917,-0.456966,-1.383345,0.004467,-0.219617,0.329777,-1.49448,-1.669459,-1.784284,-1.703363,-1.583535,-1.78747,-0.034277,-1.179342,-0.081735,0.228051,1.11933,0.563367,-0.346853,0.171045,-0.156154,1.447355,0.472447,-0.975357,0.049152,-1.323909,-0,-1.160727,-1.179839,0.652455,-0.46867,-0.86953,-1.013811,-0.664776,-0.548564,-0.538996,-1.012109,-0.915438,-0.902832,0.928614,-0.716358,0.123518,0.054874,-0.371597,-0.263073,-0.263341,-0.248866,-0.279407,-0.422391,-0.527539,-0.88313,-1.000462,0.549328,0.026117,-0.121912,-0.544326,-0.789277,1.805786,1.676079,1.827451,-0.589241,-1.340934,-1.290461,-1.319009,-1.221913,-1.023217,-1.276169,-1.285526,-1.742607,-1.31068,-1.108895,-1.422896,-1.638342,-1.209774,-1.284582,-1.31902,-1.300447,-1.350121,-1.527132,-1.413554,-1.237324,-1.275522,-1.302817,-1.300564,-0.92102,-0.993356,-0.83747,'\'(-inf-6.266667]\''
-1.253196,-1.280052,-1.23558,-1.306842,-1.05044,-1.463186,-1.532642,-1.520997,-1.639474,-1.404147,-1.74138,-1.269743,-1.364634,-1.129487,-1.945151,-1.447854,-1.678377,-1.542842,1.135889,-1.16147,-0.404647,-1.551137,-1.525219,'\'(-inf-14.9]\'',-1.143447,-1.028662,-0.868227,-0.973824,-0.75115,-0.413195,-1.567113,-1.080961,-0.454769,-1.391024,0.010611,-0.21416,0.336712,-1.493882,-1.675439,-1.778529,-1.726855,-1.579796,-1.780176,-0.034277,-1.038209,-0.018497,0.047076,0.704269,0.240137,-0.423961,0.216979,-0.285529,0.970558,0.086741,-0.975357,0.174006,-1.31524,-0,-1.158708,-1.179061,0.483099,-0.468609,-0.86921,-1.010456,-0.664602,-0.548473,-0.538996,-1.011472,-0.915262,-0.902216,0.940207,-0.71547,0.104811,0.068025,-0.360499,-0.289568,-0.285854,-0.268229,-0.279407,-0.41915,-0.524096,-0.875671,-0.99359,0.496205,0.003546,-0.140736,-0.554894,-0.799306,1.800897,1.67868,1.829216,-0.587342,-1.339402,-1.291882,-1.319009,-1.221913,-1.023217,-1.274812,-1.285408,-1.739404,-1.312071,-1.108326,-1.422896,-1.638342,-1.208881,-1.284582,-1.31902,-1.300447,-1.349755,-1.526153,-1.413395,-1.236894,-1.274295,-1.299539,-1.29783,-0.920498,-0.992817,-0.837807,'\'(-inf-6.266667]\''
-1.249466,-1.275415,-1.227317,-1.298761,-1.048915,-1.457217,-1.529487,-1.516002,-1.626315,-1.398964,-1.719853,-1.266258,-1.356663,-1.123328,-1.942365,-1.44423,-1.671386,-1.516907,1.137916,-1.159873,-0.340538,-1.547359,-1.516178,'\'(-inf-14.9]\'',-1.261568,-1.138494,-0.845472,-0.961911,-0.725409,-0.396109,-1.561842,-1.062734,-0.469411,-1.383345,0.021671,-0.205292,0.350582,-1.48979,-1.669459,-1.771334,-1.711004,-1.577459,-1.774429,0.031169,-0.897076,0.044741,0.09691,1.44545,0.613872,-0.451499,-0.361784,-0.193118,1.161277,0.262062,-0.970385,0.236433,-1.315218,-0,-1.15637,-1.17853,0.398413,-0.468507,-0.86879,-1.006453,-0.664487,-0.548564,-0.538996,-1.010835,-0.915082,-0.901361,0.98344,-0.714862,0.098029,0.069947,-0.352175,-0.295455,-0.282638,-0.287592,-0.300571,-0.451565,-0.534426,-0.871942,-0.99359,0.363396,-0.094266,-0.178382,-0.565461,-0.814349,1.79665,1.679201,1.83,-0.587342,-1.339402,-1.291882,-1.32051,-1.223242,-1.023217,-1.273455,-1.285056,-1.739404,-1.312071,-1.108326,-1.422896,-1.641399,-1.208881,-1.284582,-1.31902,-1.300447,-1.349694,-1.528582,-1.41438,-1.236322,-1.274295,-1.301724,-1.29783,-0.91962,-0.992088,-0.838679,'\'(-inf-6.266667]\''
-1.247266,-1.272545,-1.223858,-1.299815,-1.048826,-1.454234,-1.529487,-1.517003,-1.629608,-1.389459,-1.734919,-1.265095,-1.35046,-1.12069,-1.916682,-1.44242,-1.652411,-1.538522,1.111371,-1.125284,-0.31155,-1.558693,-1.529757,'\'(-inf-14.9]\'',-1.209375,-1.121683,-0.805511,-0.846187,-0.72238,-0.423585,-1.557739,-1.037116,-0.441592,-1.369267,0.032731,-0.192332,0.358508,-1.487334,-1.664535,-1.766838,-1.701971,-1.575589,-1.77465,0.096615,-0.897076,0.044741,0.314605,1.371332,0.70478,-0.33033,0.152672,-0.243284,1.479142,0.145181,-1.010163,0.049152,-1.313609,-0,-1.153921,-1.177889,0.483099,-0.468445,-0.868302,-1.001685,-0.66414,-0.548291,-0.538719,-1.010155,-0.914926,-0.900814,1.003992,-0.715236,0.131635,0.026816,-0.352175,-0.263073,-0.282638,-0.300501,-0.303595,-0.461289,-0.544755,-0.871942,-0.99359,0.350116,-0.116837,-0.197206,-0.565461,-0.814349,1.79657,1.679071,1.819805,-0.587342,-1.339402,-1.290461,-1.32201,-1.228557,-1.023217,-1.265311,-1.284703,-1.739404,-1.31068,-1.107758,-1.422896,-1.641399,-1.207987,-1.284582,-1.317726,-1.299209,-1.348992,-1.528785,-1.413141,-1.235892,-1.273068,-1.300632,-1.296463,-0.91872,-0.991216,-0.838728,'\'(-inf-6.266667]\''
-1.243856,-1.268522,-1.219374,-1.283162,-1.048258,-1.447268,-1.517922,-1.505006,-1.604933,-1.373909,-1.704783,-1.260735,-1.348688,-1.119809,-1.916647,-1.434263,-1.64542,-1.529877,1.184622,-1.092291,-0.169968,-1.559474,-1.523806,'\'(-inf-14.9]\'',-1.529399,-1.118321,-0.830487,-0.948297,-0.711024,-0.458346,-1.551648,-1.008543,-0.452573,-1.362868,0.052393,-0.165047,0.366434,-1.483085,-1.655038,-1.757215,-1.694301,-1.572785,-1.772882,0.031169,-0.897076,0.044741,0.346078,1.237919,0.674477,-0.412946,0.510954,-0.179917,1.161277,0.226998,-0.8958,0.174006,-1.303122,-0,-1.150386,-1.177575,0.313735,-0.468199,-0.867797,-0.996211,-0.663851,-0.5482,-0.538627,-1.009633,-0.914698,-0.900015,1.034369,-0.712915,0.059509,0.084669,-0.374371,-0.274849,-0.28907,-0.300501,-0.336853,-0.458048,-0.537869,-0.875671,-1.000462,0.310273,-0.049122,-0.134461,-0.528475,-0.784262,1.801458,1.679592,1.810982,-0.585918,-1.339402,-1.289039,-1.32051,-1.2259,-1.024898,-1.262597,-1.284586,-1.736201,-1.312071,-1.107758,-1.422896,-1.641399,-1.207987,-1.283403,-1.317726,-1.299209,-1.348351,-1.527536,-1.412124,-1.235491,-1.271841,-1.298447,-1.296463,-0.918034,-0.990478,-0.838939,'\'(-inf-6.266667]\''
-1.240287,-1.263983,-1.215691,-1.299942,-1.046639,-1.440307,-1.518974,-1.506007,-1.608222,-1.366999,-1.719853,-1.261025,-1.329194,-1.105728,-1.894942,-1.42792,-1.642424,-1.560132,1.228981,-1.110384,-0.219494,-1.556008,-1.521701,'\'(-inf-14.9]\'',-1.240965,-1.160909,-0.868227,-1.038494,-0.72238,-0.504994,-1.545114,-0.974058,-0.461358,-1.357109,0.07738,-0.133669,0.381295,-1.478772,-1.648355,-1.752808,-1.687369,-1.571383,-1.760725,0.096615,-0.61481,0.107979,0.364438,1.400979,0.80579,-0.25873,0.106738,-0.174636,1.256636,0.449071,-0.796355,-0.209475,-1.322312,-0,-1.149203,-1.177057,0.398413,-0.467994,-0.867242,-0.990737,-0.663851,-0.5482,-0.538719,-1.009153,-0.914495,-0.899389,1.049057,-0.713865,0.118574,0.035616,-0.352175,-0.298399,-0.276206,-0.284365,-0.330806,-0.451565,-0.537869,-0.871942,-1.003898,0.230588,-0.094266,-0.184657,-0.565461,-0.829393,1.800577,1.679071,1.804904,-0.597786,-1.33787,-1.289039,-1.32201,-1.223242,-1.024898,-1.261239,-1.284233,-1.736201,-1.31068,-1.10719,-1.422896,-1.641399,-1.207987,-1.283403,-1.317726,-1.299209,-1.347985,-1.530707,-1.412569,-1.234632,-1.270614,-1.297355,-1.295096,-0.917697,-0.989843,-0.838477,'\'(-inf-6.266667]\''
-1.237667,-1.260819,-1.218253,-1.277222,-1.04554,-1.436324,-1.524229,-1.510005,-1.627959,-1.389459,-1.732766,-1.258119,-1.31413,-1.09561,-1.872137,-1.423388,-1.642424,-1.566617,1.244787,-1.094419,-0.221993,-1.550637,-1.51792,'\'(-inf-14.9]\'',-1.231351,-1.135132,-0.877662,-0.985737,-0.758721,-0.468297,-1.536151,-0.908537,-0.437932,-1.353909,0.128582,-0.064093,0.404082,-1.474019,-1.64431,-1.742376,-1.684103,-1.568111,-1.748789,0.031169,-0.61481,0.107979,0.065436,0.896976,0.553266,-0.490053,-0.012689,-0.282889,1.113597,0.495823,-0.96044,-0.236229,-1.308674,-0,-1.147094,-1.175475,0.398413,-0.46781,-0.866653,-0.984851,-0.663562,-0.547928,-0.538442,-1.008324,-0.914286,-0.898514,1.095842,-0.712767,0.095833,0.0463,-0.366048,-0.295455,-0.266558,-0.261775,-0.300571,-0.44184,-0.534426,-0.868212,-1.003898,0.4298,-0.034074,-0.14701,-0.533759,-0.80432,1.800096,1.668038,1.798629,-0.610129,-1.33787,-1.289039,-1.32051,-1.213941,-1.024898,-1.253096,-1.28388,-1.742607,-1.312071,-1.10719,-1.421207,-1.638342,-1.207987,-1.283403,-1.316432,-1.29797,-1.347222,-1.532293,-1.410727,-1.234317,-1.269387,-1.298447,-1.292362,-0.918027,-0.989436,-0.837389,'\'(-inf-6.266667]\''
-1.237314,-1.260328,-1.214249,-1.288893,-1.050093,-1.451247,-1.535797,-1.523997,-1.662504,-1.487089,-1.702629,-1.260735,-1.332738,-1.11497,-1.870324,-1.437887,-1.634438,-1.551487,0.964905,-1.093887,-0.227572,-1.550075,-1.517789,'\'(-inf-14.9]\'',-1.161303,-1.182203,-0.885432,-0.963613,-0.779163,-0.44783,-1.539623,-1.016918,-0.421094,-1.335352,0.025358,-0.242809,0.41399,-1.470556,-1.638506,-1.734732,-1.677853,-1.567176,-1.735748,0.031169,-0.897076,-0.018497,0.246411,1.430626,1.007808,-0.25873,-0.499585,-0.3753,0.827518,0.519199,-1.005191,-0.325411,-1.312166,-0,-1.143871,-1.175488,0.567777,-0.467708,-0.866283,-0.981731,-0.663389,-0.547837,-0.53835,-1.007686,-0.914102,-0.897953,1.145691,-0.711646,0.072948,0.065477,-0.391018,-0.263073,-0.253693,-0.248866,-0.294524,-0.445082,-0.537869,-0.868212,-1.007334,0.575889,0.026117,-0.096815,-0.486206,-0.764204,1.797692,1.668943,1.798825,-0.613926,-1.33787,-1.287618,-1.319009,-1.217927,-1.024898,-1.234094,-1.28341,-1.742607,-1.312071,-1.10719,-1.421207,-1.641399,-1.207093,-1.283403,-1.316432,-1.29797,-1.346916,-1.537589,-1.410314,-1.23383,-1.271841,-1.294077,-1.29783,-0.917999,-0.98907,-0.836496,'\'(-inf-6.266667]\''
-1.233029,-1.254759,-1.219854,-1.296998,-1.049031,-1.418419,-1.503199,-1.490013,-1.598352,-1.372182,-1.696173,-1.249692,-1.302611,-1.088131,-1.86325,-1.408891,-1.643422,-1.562292,1.360174,-1.040673,-0.062415,-1.550762,-1.512758,'\'(-inf-14.9]\'',-1.378315,-1.191169,-0.874887,-0.939788,-0.775378,-0.389381,-1.526209,-0.867648,-0.403524,-1.318714,0.138003,-0.065457,0.428851,-1.466716,-1.631999,-1.726459,-1.672172,-1.564839,-1.728233,0.227507,-0.755943,0.171217,0.146744,1.178625,0.735083,-0.534115,0.005684,-0.311932,1.145384,0.449071,-0.910717,-0.405674,-1.313488,-0,-1.142458,-1.174465,0.483099,-0.467544,-0.865795,-0.978552,-0.663042,-0.547655,-0.538258,-1.006978,-0.913916,-0.897572,1.11888,-0.711186,0.075921,0.051987,-0.346626,-0.257186,-0.231181,-0.219821,-0.279407,-0.454806,-0.551642,-0.864483,-1.007334,0.4298,-0.116837,-0.222303,-0.565461,-0.844436,1.79657,1.665322,1.801374,-0.620573,-1.33787,-1.289039,-1.319009,-1.216598,-1.024898,-1.230022,-1.282352,-1.739404,-1.31068,-1.106621,-1.419518,-1.638342,-1.206199,-1.282224,-1.316432,-1.29797,-1.346214,-1.533912,-1.409297,-1.233458,-1.270614,-1.296262,-1.295096,-0.918562,-0.988876,-0.835754,'\'(-inf-6.266667]\''
-1.226686,-1.247449,-1.213929,-1.258125,-1.043716,-1.405484,-1.488479,-1.471027,-1.562162,-1.316023,-1.683256,-1.243587,-1.290205,-1.080209,-1.83927,-1.390767,-1.632437,-1.549327,1.565365,-1.044398,-0.118738,-1.545173,-1.510161,'\'(-inf-14.9]\'',-1.273929,-1.179962,-0.902082,-1.007861,-0.782192,-0.469756,-1.519802,-0.825774,-0.407917,-1.314235,0.170773,-0.023166,0.446684,-1.463001,-1.623909,-1.717016,-1.663763,-1.56297,-1.724254,0.292953,-0.61481,0.297693,0.141498,2.216277,-0.05279,-0.346853,-0.251544,-0.54956,1.22485,-0.053516,-1.129498,-0.477019,-1.301326,-0,-1.140781,-1.173456,0.14438,-0.467482,-0.86534,-0.974491,-0.662522,-0.547291,-0.537796,-1.005141,-0.913656,-0.896635,1.122929,-0.712339,0.141734,-0.010494,-0.255069,-0.213028,-0.16686,-0.17464,-0.246149,-0.438599,-0.541312,-0.860753,-1.007334,0.137622,-0.327508,-0.410537,-0.734539,-1.009915,1.79657,1.645917,1.812746,-0.617249,-1.33787,-1.290461,-1.317508,-1.217927,-1.024898,-1.232737,-1.281882,-1.736201,-1.306506,-1.106621,-1.417829,-1.638342,-1.206199,-1.282224,-1.315139,-1.296731,-1.345482,-1.532057,-1.408344,-1.232971,-1.268161,-1.292985,-1.292362,-0.918569,-0.987773,-0.835314,'\'(-inf-6.266667]\''
-1.222629,-1.246075,-1.209541,-1.26705,-1.042838,-1.393548,-1.475859,-1.45903,-1.535848,-1.298746,-1.650967,-1.244169,-1.278686,-1.07361,-1.80894,-1.378987,-1.631438,-1.540682,1.671347,-1.029498,-0.056187,-1.541926,-1.504144,'\'(-inf-14.9]\'',-1.33711,-1.140736,-0.946483,-1.075934,-0.812476,-0.541709,-1.51472,-0.79523,-0.407185,-1.315514,0.199037,0.00753,0.470462,-1.459885,-1.620919,-1.709372,-1.655582,-1.559698,-1.715413,0.358399,-0.332544,0.360931,-0.181109,0.155796,0.250238,-0.038423,-0.894614,-0.285529,0.795732,0.951658,-0.865967,-0.584037,-1.293064,-0,-1.137668,-1.172147,0.313735,-0.4674,-0.864869,-0.969958,-0.662869,-0.547291,-0.537796,-1.004037,-0.913439,-0.895507,1.179071,-0.710656,0.093177,0.026839,-0.241197,-0.189477,-0.176508,-0.177867,-0.270336,-0.435357,-0.537869,-0.864483,-1.01077,-0.035028,-0.357603,-0.435634,-0.766242,-1.040002,1.799936,1.643491,1.814119,-0.621047,-1.33787,-1.287618,-1.317508,-1.221913,-1.024898,-1.232737,-1.28153,-1.732997,-1.303723,-1.106621,-1.417829,-1.632227,-1.205305,-1.281045,-1.315139,-1.295492,-1.344932,-1.533136,-1.407677,-1.232455,-1.268161,-1.29517,-1.290994,-0.918734,-0.987708,-0.835535,'\'(-inf-6.266667]\''
-1.222261,-1.24188,-1.199613,-1.26407,-1.042076,-1.386583,-1.466398,-1.452032,-1.53091,-1.284922,-1.655274,-1.238358,-1.275142,-1.071409,-1.810263,-1.37264,-1.629444,-1.532037,1.693394,-0.977347,-0.058411,-1.532934,-1.49987,'\'(-inf-14.9]\'',-1.176411,-1.142977,-0.876552,-0.900645,-0.795062,-0.524357,-1.50784,-0.774047,-0.406453,-1.319354,0.21788,0.036861,0.473434,-1.454376,-1.609487,-1.700918,-1.647003,-1.557361,-1.707234,0.292953,-0.332544,0.360931,0.007734,1.134154,0.108825,-0.25873,-0.343411,-0.494114,0.763945,0.156869,-0.945523,-0.52161,-1.295377,-0,-1.13533,-1.171424,0.313735,-0.46736,-0.864381,-0.964484,-0.663216,-0.547655,-0.538258,-1.003013,-0.913244,-0.894613,1.263011,-0.710166,0.091406,0.022498,-0.219002,-0.18359,-0.137916,-0.158504,-0.243125,-0.41915,-0.530982,-0.871942,-1.017642,-0.021747,-0.380175,-0.473281,-0.819078,-1.090147,1.806988,1.646812,1.821569,-0.612028,-1.336339,-1.287618,-1.317508,-1.216598,-1.024898,-1.234094,-1.28153,-1.732997,-1.305114,-1.106053,-1.419518,-1.635284,-1.204412,-1.281045,-1.313845,-1.295492,-1.344719,-1.534351,-1.40809,-1.23194,-1.26448,-1.287523,-1.289627,-0.918713,-0.987383,-0.835815,'\'(-inf-6.266667]\''
-1.219104,-1.238053,-1.197659,-1.248843,-1.04328,-1.37166,-1.452726,-1.438041,-1.514462,-1.25641,-1.65312,-1.233707,-1.259192,-1.058651,-1.810363,-1.359954,-1.616461,-1.536357,1.791944,-0.961915,0.082005,-1.530061,-1.489612,'\'(-inf-14.9]\'',-1.232724,-1.211342,-0.944818,-1.019774,-0.835189,-0.538614,-1.501432,-0.736606,-0.429879,-1.309115,0.243276,0.06551,0.493249,-1.450379,-1.602277,-1.690036,-1.644248,-1.554557,-1.699277,0.358399,-0.191412,0.360931,-0.018494,1.830863,0.341146,-0.68833,-0.352598,-0.425466,1.27253,-0.041828,-1.010163,-0.307574,-1.289363,-0,-1.133318,-1.169665,0.229058,-0.467237,-0.86391,-0.96001,-0.6631,-0.547564,-0.538165,-1.001678,-0.912993,-0.893909,1.283723,-0.710103,0.105894,-0.003523,-0.19958,-0.151208,-0.137916,-0.158504,-0.234055,-0.41915,-0.530982,-0.868212,-1.017642,-0.06159,-0.425319,-0.510928,-0.845497,-1.120234,1.819329,1.662223,1.816276,-0.586393,-1.336339,-1.287618,-1.316007,-1.215269,-1.024898,-1.232737,-1.281177,-1.732997,-1.305114,-1.105485,-1.417829,-1.635284,-1.204412,-1.279866,-1.313845,-1.295492,-1.344078,-1.535025,-1.406629,-1.231596,-1.263253,-1.286431,-1.28826,-0.918535,-0.987044,-0.836128,'\'(-inf-6.266667]\''
-1.21641,-1.235208,-1.193143,-1.235286,-1.04227,-1.366686,-1.452726,-1.436042,-1.519395,-1.258137,-1.659581,-1.230509,-1.248559,-1.053808,-1.768884,-1.353611,-1.584502,-1.542842,1.793704,-0.943822,0.062332,-1.52135,-1.483234,'\'(-inf-14.9]\'',-1.170917,-1.223671,-0.944818,-1.03509,-0.828375,-0.544318,-1.493353,-0.72429,-0.433539,-1.335352,0.269902,0.109166,0.494239,-1.443107,-1.585217,-1.681403,-1.628965,-1.55222,-1.690215,0.292953,-0.755943,0.297693,0.020848,1.48992,0.745184,-0.440484,-0.79356,-0.554841,0.827518,0.507511,-1.084747,-0.780237,-1.285881,-0,-1.130871,-1.168833,0.229058,-0.467134,-0.86354,-0.957715,-0.662869,-0.547382,-0.538073,-1.000461,-0.912731,-0.892865,1.341391,-0.709215,0.092446,0.000086,-0.188483,-0.151208,-0.137916,-0.161731,-0.240102,-0.41915,-0.534426,-0.864483,-1.01077,-0.154556,-0.462938,-0.548574,-0.866632,-1.135277,1.819489,1.675298,1.823726,-0.595887,-1.331743,-1.283354,-1.314506,-1.209954,-1.024898,-1.227308,-1.280354,-1.729794,-1.303723,-1.105485,-1.417829,-1.638342,-1.203518,-1.279866,-1.313845,-1.294253,-1.343284,-1.536779,-1.405009,-1.231138,-1.26448,-1.289708,-1.28826,-0.917889,-0.986197,-0.836557,'\'(-inf-6.266667]\''
-1.212791,-1.230203,-1.193752,-1.250089,-1.040393,-1.357733,-1.440109,-1.424049,-1.507884,-1.250362,-1.646664,-1.22528,-1.244128,-1.051171,-1.757014,-1.345458,-1.604476,-1.553647,1.822613,-0.891672,0.239387,-1.513919,-1.470049,'\'(-inf-14.9]\'',-1.276676,-1.195652,-0.978118,-1.108269,-0.841246,-0.57135,-1.48603,-0.661725,-0.435004,-1.291198,0.294069,0.141225,0.506128,-1.439802,-1.584338,-1.671511,-1.622943,-1.54848,-1.68071,0.358399,-0.191412,0.360931,0.125761,1.65298,0.785588,-0.434976,-0.582265,-0.436027,1.288423,0.612704,-1.059886,-0.7624,-1.292745,-0,-1.128666,-1.167892,0.313735,-0.467196,-0.863254,-0.957126,-0.662811,-0.547382,-0.538073,-0.999481,-0.912502,-0.892092,1.354824,-0.708195,0.074485,0.015914,-0.185708,-0.151208,-0.15078,-0.17464,-0.243125,-0.41915,-0.530982,-0.860753,-1.007334,-0.181117,-0.470462,-0.548574,-0.866632,-1.135277,1.821813,1.67842,1.825491,-0.594463,-1.330211,-1.281932,-1.314506,-1.204639,-1.024898,-1.215092,-1.279179,-1.726591,-1.302332,-1.104916,-1.41614,-1.641399,-1.203518,-1.279866,-1.311258,-1.294253,-1.342155,-1.534688,-1.403007,-1.230508,-1.262026,-1.284246,-1.285526,-0.917292,-0.98543,-0.837136,'\'(-inf-6.266667]\''
-1.210867,-1.227872,-1.199068,-1.241177,-1.041129,-1.348777,-1.433799,-1.416054,-1.502947,-1.24086,-1.644511,-1.220047,-1.231723,-1.043691,-1.733589,-1.339111,-1.604476,-1.536357,1.824178,-0.8789,0.288643,-1.515605,-1.470345,'\'(-inf-14.9]\'',-1.295905,-1.233757,-0.950368,-1.053811,-0.827618,-0.567637,-1.479749,-0.623299,-0.45843,-1.284798,0.32561,0.186245,0.517026,-1.435993,-1.577655,-1.65964,-1.617148,-1.547078,-1.673195,0.227507,-0.332544,0.297693,0.151989,1.712275,1.038111,-0.468022,-0.683319,-0.346256,1.383782,0.601016,-0.870939,-0.842664,-1.289241,-0,-1.126661,-1.166719,0.398413,-0.467093,-0.862749,-0.954889,-0.662465,-0.5472,-0.537888,-0.997965,-0.912245,-0.891221,1.392633,-0.711498,0.222071,-0.127184,-0.19958,-0.151208,-0.179724,-0.203685,-0.255219,-0.41915,-0.530982,-0.853294,-0.99359,-0.154556,-0.425319,-0.510928,-0.824362,-1.085132,1.811075,1.671535,1.816079,-0.580696,-1.328679,-1.27909,-1.313006,-1.194009,-1.024898,-1.212378,-1.277651,-1.723387,-1.303723,-1.104916,-1.412762,-1.644456,-1.203518,-1.279866,-1.309964,-1.291776,-1.340689,-1.551352,-1.397004,-1.230193,-1.2608,-1.280969,-1.285526,-0.916406,-0.984534,-0.837107,'\'(-inf-6.266667]\''
-1.206396,-1.222549,-1.191125,-1.225101,-1.039137,-1.337833,-1.424338,-1.409056,-1.502947,-1.233085,-1.650971,-1.213655,-1.22198,-1.037089,-1.716408,-1.322801,-1.618458,-1.501782,1.973382,-0.872515,0.356637,-1.504708,-1.456043,'\'(-inf-14.9]\'',-1.298652,-1.289794,-1.007533,-1.152517,-0.861687,-0.616955,-1.47107,-0.579454,-0.445985,-1.303996,0.372716,0.243544,0.547739,-1.430138,-1.571851,-1.651546,-1.61158,-1.542872,-1.65706,0.292953,-0.332544,0.297693,0.259525,1.07486,1.522956,-0.203654,-0.79356,-0.356818,1.097704,1.033475,-0.955468,-0.896173,-1.281178,-0,-1.124659,-1.165301,0.313735,-0.466929,-0.862278,-0.948885,-0.662118,-0.547018,-0.537796,-0.997051,-0.911984,-0.890424,1.409361,-0.711599,0.243426,-0.147348,-0.188483,-0.151208,-0.16686,-0.190776,-0.258243,-0.41915,-0.534426,-0.845835,-0.983282,-0.23424,-0.462938,-0.548574,-0.840213,-1.095161,1.803141,1.676599,1.813531,-0.575,-1.330211,-1.27909,-1.313006,-1.199324,-1.024898,-1.21645,-1.278004,-1.726591,-1.303723,-1.10378,-1.412762,-1.647514,-1.202624,-1.279866,-1.309964,-1.293015,-1.340323,-1.552971,-1.396908,-1.22962,-1.262026,-1.285338,-1.285526,-0.915329,-0.983808,-0.837083,'\'(-inf-6.266667]\''
-1.203608,-1.21833,-1.186417,-1.237897,-1.038742,-1.332859,-1.423286,-1.408059,-1.504591,-1.244313,-1.644511,-1.213655,-1.211346,-1.030049,-1.702132,-1.321896,-1.611467,-1.495297,1.893979,-0.827282,0.465509,-1.509235,-1.459265,'\'(-inf-14.9]\'',-1.354966,-1.311088,-0.979783,-1.072531,-0.859416,-0.490788,-1.462769,-0.5228,-0.445985,-1.26944,0.398523,0.285153,0.549721,-1.425479,-1.566048,-1.646779,-1.607859,-1.540067,-1.641587,0.227507,-0.332544,0.234455,0.005111,1.341684,0.664376,-0.231192,-1.032415,-0.325134,1.431462,0.741273,-0.980329,-0.708891,-1.278864,-0,-1.122861,-1.163937,0.398413,-0.466786,-0.86179,-0.942705,-0.662234,-0.547291,-0.538073,-0.996322,-0.911702,-0.889878,1.426274,-0.710368,0.210734,-0.124149,-0.180159,-0.151208,-0.16686,-0.17464,-0.231031,-0.402942,-0.517209,-0.842106,-0.983282,-0.154556,-0.447891,-0.536025,-0.850781,-1.110205,1.798173,1.676729,1.813138,-0.59921,-1.328679,-1.27909,-1.311505,-1.195338,-1.024898,-1.21645,-1.278356,-1.723387,-1.303723,-1.10378,-1.414451,-1.653628,-1.202624,-1.279866,-1.311258,-1.293015,-1.340201,-1.550914,-1.398433,-1.228933,-1.259573,-1.282061,-1.284159,-0.914299,-0.982848,-0.837119,'\'(-inf-6.266667]\''
-1.187195,-1.213153,-1.175624,-1.231404,-1.038411,-1.329876,-1.411718,-1.392065,-1.476628,-1.224445,-1.614374,-1.206388,-1.220204,-1.03401,-1.709512,-1.319177,-1.573516,-1.532037,1.842028,-0.775132,0.582371,-1.512795,-1.461764,'\'(-inf-14.9]\'',-1.335737,-1.400747,-0.980338,-1.123586,-0.83746,-0.579051,-1.4545,-0.482404,-0.486249,-1.258562,0.427196,0.319941,0.568545,-1.419813,-1.558485,-1.636527,-1.600757,-1.536328,-1.626778,0.292953,-0.332544,0.234455,0.136252,1.608509,0.886597,-0.385407,-0.692506,-0.383221,1.479142,0.57764,-0.950496,-0.8605,-1.286344,-0,-1.119967,-1.163405,0.398413,-0.466561,-0.861167,-0.937642,-0.662002,-0.547109,-0.537888,-0.995198,-0.911402,-0.889104,1.294307,-0.708117,0.140372,-0.067581,-0.207904,-0.151208,-0.141132,-0.135914,-0.191726,-0.386735,-0.503436,-0.830917,-0.972974,0.164184,-0.327508,-0.441909,-0.776809,-1.040002,1.798012,1.676858,1.824707,-0.608705,-1.327147,-1.27909,-1.311505,-1.196667,-1.024898,-1.213735,-1.277534,-1.723387,-1.303723,-1.10378,-1.414451,-1.653628,-1.20173,-1.278687,-1.309964,-1.291776,-1.339957,-1.551285,-1.399481,-1.228188,-1.258346,-1.280969,-1.282792,-0.914525,-0.982599,-0.836743,'\'(-inf-6.266667]\''
-1.19014,-1.204175,-1.166432,-1.217694,-1.035189,-1.317936,-1.399102,-1.382071,-1.466757,-1.214078,-1.607914,-1.200865,-1.208688,-1.033128,-1.680423,-1.310115,-1.55055,-1.512587,1.883045,-0.727239,0.723757,-1.502304,-1.448317,'\'(-inf-14.9]\'',-1.464845,-1.333503,-1.013638,-1.191659,-0.852602,-0.623337,-1.447272,-0.439544,-0.448913,-1.245764,0.452593,0.341087,0.599258,-1.415343,-1.551275,-1.628074,-1.594564,-1.531654,-1.617937,0.292953,-0.050279,0.297693,0.057568,1.193448,0.9169,-0.445992,-0.619012,-0.245924,1.622181,0.565952,-0.726743,-0.869418,-1.273246,-0,-1.116257,-1.16275,0.313735,-0.466315,-0.860646,-0.932698,-0.661714,-0.546927,-0.537612,-0.99438,-0.911129,-0.888478,1.387433,-0.706551,0.102133,-0.041732,-0.191257,-0.151208,-0.105755,-0.097187,-0.161491,-0.357561,-0.482776,-0.815999,-0.966102,0.204027,-0.31246,-0.448183,-0.79266,-1.065074,1.799856,1.676209,1.837255,-0.614876,-1.325615,-1.276247,-1.311505,-1.191352,-1.024898,-1.21645,-1.277181,-1.720184,-1.305114,-1.103211,-1.412762,-1.653628,-1.200837,-1.277508,-1.30867,-1.290537,-1.339804,-1.568489,-1.398306,-1.227587,-1.257119,-1.278784,-1.281425,-0.914402,-0.982538,-0.835131,'\'(-inf-6.266667]\''
-1.185051,-1.198459,-1.16672,-1.201888,-1.033643,-1.312962,-1.387533,-1.371075,-1.456891,-1.206299,-1.592848,-1.193601,-1.213119,-1.037971,-1.676147,-1.305582,-1.574519,-1.460717,1.857976,-0.625067,0.965798,-1.503584,-1.447363,'\'(-inf-14.9]\'',-1.467592,-1.361521,-1.028623,-1.195063,-0.87153,-0.617329,-1.438529,-0.377471,-0.431343,-1.229766,0.492736,0.3902,0.625017,-1.41059,-1.545471,-1.624027,-1.587548,-1.52885,-1.605117,0.292953,0.090854,0.360931,0.07855,1.756745,1.209827,-0.627745,-0.857867,-0.174636,1.717541,0.601016,-0.846078,-0.494856,-1.270448,-0,-1.113447,-1.161714,0.14438,-0.466172,-0.860124,-0.929578,-0.661425,-0.547018,-0.537612,-0.993509,-0.910864,-0.887924,1.364657,-0.70596,0.099954,-0.041361,-0.185708,-0.151208,-0.086459,-0.081051,-0.140327,-0.318663,-0.448343,-0.801081,-0.95923,0.270431,-0.23722,-0.397988,-0.782093,-1.065074,1.799856,1.668555,1.838431,-0.615351,-1.324083,-1.273404,-1.310004,-1.187365,-1.024898,-1.213735,-1.276006,-1.71698,-1.303723,-1.102643,-1.411073,-1.650571,-1.199943,-1.277508,-1.30867,-1.290537,-1.33895,-1.567983,-1.397512,-1.226785,-1.257119,-1.277692,-1.281425,-0.914443,-0.982283,-0.835056,'\'(-inf-6.266667]\''
-1.181373,-1.194068,-1.165343,-1.19399,-1.03318,-1.29804,-1.371762,-1.358085,-1.445376,-1.182974,-1.595002,-1.185174,-1.200713,-1.031369,-1.652128,-1.288367,-1.570524,-1.456397,2.011909,-0.59101,1.067201,-1.494342,-1.43625,'\'(-inf-14.9]\'',-1.598074,-1.404109,-1.020853,-1.140604,-0.885158,-0.670536,-1.42824,-0.313428,-0.438664,-1.203529,0.529192,0.43863,0.64285,-1.40442,-1.536677,-1.616293,-1.574935,-1.526513,-1.591191,0.423845,0.090854,0.360931,0.592624,2.497926,1.795681,-0.043931,-1.032415,-0.150873,1.622181,1.442557,-0.761549,-1.154799,-1.264268,-0,-1.110175,-1.160623,0.14438,-0.465946,-0.859535,-0.925752,-0.660616,-0.54629,-0.536966,-0.991773,-0.910645,-0.887418,1.337805,-0.706287,0.130865,-0.079369,-0.12467,-0.071724,0.006806,0.018992,-0.034505,-0.234384,-0.389807,-0.771245,-0.935179,0.443081,-0.207125,-0.42936,-0.856064,-1.140292,1.798012,1.664934,1.835294,-0.611553,-1.321019,-1.270561,-1.310004,-1.179393,-1.024898,-1.220522,-1.274831,-1.713777,-1.302332,-1.102643,-1.409384,-1.647514,-1.199943,-1.276329,-1.306083,-1.289298,-1.337118,-1.554287,-1.394716,-1.226097,-1.255892,-1.277692,-1.280058,-0.914347,-0.981302,-0.8344,'\'(-inf-6.266667]\''
-1.179691,-1.192326,-1.161084,-1.1986,-1.032318,-1.2861,-1.361245,-1.344093,-1.435505,-1.179517,-1.582085,-1.177034,-1.18565,-1.019489,-1.643424,-1.277492,-1.560537,-1.419652,2.073301,-0.575578,1.138377,-1.491438,-1.431779,'\'(-inf-14.9]\'',-1.47858,-1.493768,-1.040834,-1.196765,-0.887429,-0.627929,-1.421706,-0.282392,-0.432075,-1.220807,0.566877,0.491836,0.65672,-1.399887,-1.529291,-1.60676,-1.572094,-1.523709,-1.581908,0.489291,0.231987,0.487407,-0.157504,1.608509,0.674477,-0.870083,-0.701693,-0.12447,2.114872,0.951658,-0.816244,-0.869418,-1.255884,-0,-1.105192,-1.159464,0.14438,-0.46568,-0.859064,-0.921396,-0.660905,-0.546199,-0.536781,-0.990753,-0.91033,-0.886425,1.400621,-0.705048,0.105333,-0.061829,-0.096926,-0.021679,0.074343,0.070627,0.01387,-0.189003,-0.39325,-0.748868,-0.921435,0.522766,-0.177029,-0.498379,-0.877199,-1.170379,1.806988,1.664159,1.838823,-0.616775,-1.321019,-1.26914,-1.310004,-1.174078,-1.024898,-1.217807,-1.274478,-1.70737,-1.303723,-1.102075,-1.407695,-1.650571,-1.199049,-1.276329,-1.306083,-1.288059,-1.336508,-1.571356,-1.392366,-1.22541,-1.255892,-1.277692,-1.278691,-0.914752,-0.981565,-0.8342,'\'(-inf-6.266667]\''
-1.176238,-1.188131,-1.156568,-1.191723,-1.031929,-1.278143,-1.357042,-1.340092,-1.430572,-1.181247,-1.569173,-1.178197,-1.173244,-1.011131,-1.628833,-1.27024,-1.539564,-1.452072,2.08244,-0.539392,1.390491,-1.498682,-1.433883,'\'(-inf-14.9]\'',-1.503303,-1.515062,-1.056929,-1.212081,-0.902571,-0.662929,-1.413279,-0.232635,-0.441592,-1.248323,0.626272,0.566869,0.691396,-1.394662,-1.523487,-1.597317,-1.569452,-1.522307,-1.566436,0.620183,0.37312,0.613883,-0.136521,0.763564,0.745184,-0.390915,-0.986481,-0.562762,1.002344,0.706209,-1.054914,-1.110208,-1.257096,-0,-1.101171,-1.157445,0.14438,-0.465578,-0.858626,-0.921926,-0.661309,-0.546745,-0.537427,-0.989887,-0.909998,-0.885754,1.387765,-0.705539,0.141785,-0.112179,-0.046985,-0.004016,0.093639,0.106127,0.032011,-0.150106,-0.317498,-0.73395,-0.900819,0.363396,-0.222172,-0.473281,-0.951171,-1.230553,1.810754,1.672442,1.836079,-0.609179,-1.316423,-1.264876,-1.307003,-1.166105,-1.024898,-1.219164,-1.272127,-1.704167,-1.302332,-1.102075,-1.404317,-1.650571,-1.199049,-1.27515,-1.303495,-1.28682,-1.334402,-1.563699,-1.387982,-1.224694,-1.253439,-1.27223,-1.275956,-0.915164,-0.981823,-0.834876,'\'(-inf-6.266667]\''
-1.172503,-1.183568,-1.151315,-1.174623,-1.029632,-1.261229,-1.34337,-1.328099,-1.415768,-1.172604,-1.551949,-1.170061,-1.152864,-1.00145,-1.591446,-1.254835,-1.541561,-1.445587,2.202912,-0.440413,1.501389,-1.494904,-1.432107,'\'(-inf-14.9]\'',-1.47858,-1.452301,-1.063034,-1.227398,-0.904085,-0.797124,-1.400781,-0.134107,-0.427683,-1.19393,0.67215,0.626896,0.715174,-1.388492,-1.516804,-1.589223,-1.56147,-1.516698,-1.548532,0.620183,0.231987,0.550645,-0.094556,1.297214,0.906799,-0.54513,-1.050788,-0.364739,1.622181,1.021786,-0.990274,-1.145881,-1.244846,-0,-1.095571,-1.155836,0.059702,-0.465393,-0.858189,-0.919866,-0.661251,-0.546745,-0.537519,-0.988851,-0.909745,-0.88512,1.38006,-0.708507,0.273563,-0.228614,-0.030339,0.09313,0.074343,0.093218,0.041081,-0.169554,-0.303725,-0.681737,-0.8321,0.336835,-0.304936,-0.479555,-0.903618,-1.155335,1.816364,1.674519,1.821765,-0.609654,-1.316423,-1.264876,-1.305502,-1.168763,-1.024898,-1.220522,-1.270952,-1.700964,-1.300941,-1.100938,-1.402628,-1.647514,-1.198155,-1.27515,-1.302202,-1.285582,-1.33315,-1.564238,-1.38506,-1.22415,-1.252212,-1.271137,-1.275956,-0.915226,-0.981914,-0.835772,'\'(-inf-6.266667]\''
-1.173071,-1.183887,-1.150963,-1.180344,-1.031451,-1.259238,-1.33706,-1.319106,-1.409191,-1.151005,-1.556256,-1.166863,-1.155522,-0.99529,-1.597158,-1.248492,-1.538565,-1.432622,2.194592,-0.510124,1.437775,-1.486692,-1.421521,'\'(-inf-14.9]\'',-1.42364,-1.63274,-1.067474,-1.212081,-0.916956,-0.821981,-1.393048,-0.107997,-0.69489,-1.211208,0.720075,0.691015,0.737961,-1.382448,-1.507131,-1.582928,-1.556584,-1.513894,-1.533722,0.620183,0.514253,0.677121,-0.204715,1.060036,0.70478,-0.627745,-0.968108,-0.599726,1.17717,0.402319,-0.995246,-1.208308,-1.250509,-0,-1.091377,-1.154445,0.229058,-0.465127,-0.857836,-0.918688,-0.660905,-0.546472,-0.537243,-0.987797,-0.9095,-0.884789,1.388562,-0.706388,0.208019,-0.196763,-0.027564,0.143176,0.083991,0.080309,0.019917,-0.198728,-0.345044,-0.66682,-0.801176,0.217307,-0.387699,-0.567397,-0.89305,-1.120234,1.806988,1.677639,1.818236,-0.605856,-1.314891,-1.264876,-1.304001,-1.17142,-1.024898,-1.220522,-1.269777,-1.694557,-1.299549,-1.10037,-1.400939,-1.647514,-1.196368,-1.272793,-1.299614,-1.283104,-1.33138,-1.5582,-1.382963,-1.222861,-1.249758,-1.266768,-1.273222,-0.915075,-0.981718,-0.835634,'\'(-inf-6.266667]\''
-1.170774,-1.181041,-1.157304,-1.193043,-1.033716,-1.247303,-1.327599,-1.311107,-1.409187,-1.170015,-1.541185,-1.16134,-1.142231,-0.991772,-1.577279,-1.240339,-1.527579,-1.413172,2.211713,-0.493627,1.329721,-1.483289,-1.421948,'\'(-inf-14.9]\'',-1.330243,-1.444456,-1.090229,-1.339719,-0.891215,-0.761259,-1.384368,-0.055285,-0.448913,-1.232965,0.764314,0.745585,0.765702,-1.37716,-1.501679,-1.572856,-1.546528,-1.510622,-1.520018,0.358399,0.37312,0.487407,-0.4329,0.511563,0.421954,-0.644268,-1.151842,-0.776627,1.002344,0.21531,-1.119553,-1.34208,-1.25399,-0,-1.087861,-1.15229,0.398413,-0.465229,-0.857701,-0.919042,-0.660847,-0.546472,-0.537335,-0.986617,-0.909301,-0.884328,1.393888,-0.710142,0.373703,-0.325538,0.036248,0.146119,0.090423,0.102899,0.028988,-0.179279,-0.334714,-0.659361,-0.777124,-0.048309,-0.515606,-0.692886,-1.004008,-1.200466,1.797291,1.676079,1.816079,-0.60728,-1.314891,-1.266297,-1.301,-1.175407,-1.024898,-1.224593,-1.268954,-1.691354,-1.300941,-1.099802,-1.400939,-1.644456,-1.195474,-1.271614,-1.299614,-1.283104,-1.330739,-1.557829,-1.383598,-1.221744,-1.249758,-1.265675,-1.273222,-0.914814,-0.981498,-0.835854,'\'(-inf-6.266667]\''
-1.167326,-1.176208,-1.155511,-1.173612,-1.030725,-1.241333,-1.320237,-1.302115,-1.400965,-1.170012,-1.528269,-1.157274,-1.135142,-0.98825,-1.564125,-1.234901,-1.505611,-1.475842,2.19084,-0.475002,1.453327,-1.477044,-1.412808,'\'(-inf-14.9]\'',-1.308267,-1.491527,-1.122974,-1.346526,-0.932855,-0.753273,-1.371775,0.028957,-0.441592,-1.193291,0.808554,0.800837,0.792452,-1.369983,-1.491831,-1.560805,-1.537637,-1.505948,-1.502115,0.423845,0.37312,0.424169,-0.619121,0.808035,0.129027,-0.842545,-1.38151,-1.098746,0.525546,-0.123644,-1.328389,-1.529362,-1.246411,-0,-1.083111,-1.149972,0.398413,-0.465168,-0.857516,-0.917864,-0.660558,-0.546381,-0.537243,-0.984064,-0.908977,-0.883882,1.37307,-0.710703,0.414507,-0.363986,0.111159,0.181445,0.045398,0.051264,0.041081,-0.153347,-0.324384,-0.625795,-0.742765,-0.353768,-0.658561,-0.843473,-1.099114,-1.285713,1.796971,1.67855,1.811178,-0.60823,-1.317955,-1.267718,-1.301,-1.175407,-1.024898,-1.227308,-1.268601,-1.68815,-1.299549,-1.099233,-1.400939,-1.644456,-1.19458,-1.270435,-1.299614,-1.281865,-1.329457,-1.555738,-1.382772,-1.220427,-1.248531,-1.262398,-1.273222,-0.914175,-0.980933,-0.83652,'\'(-inf-6.266667]\''
-1.164486,-1.172455,-1.149682,-1.191065,-1.030168,-1.234368,-1.311828,-1.295117,-1.404253,-1.191614,-1.513203,-1.150297,-1.132484,-0.989131,-1.539896,-1.229463,-1.492628,-1.426137,2.170234,-0.472873,1.452693,-1.474265,-1.410013,'\'(-inf-14.9]\'',-1.317881,-1.457905,-1.149615,-1.392476,-0.948754,-0.646768,-1.365778,0.041765,-0.429147,-1.19457,0.819613,0.812433,0.802359,-1.364821,-1.48761,-1.546776,-1.531927,-1.499405,-1.4862,0.358399,0.231987,0.297693,-0.902386,0.333679,-0.174001,-1.013283,-1.51931,-1.162113,0.875198,-0.33403,-1.432807,-1.591789,-1.253318,-0,-1.078747,-1.148144,0.567777,-0.465434,-0.857566,-0.920219,-0.65998,-0.545927,-0.536873,-0.982344,-0.908791,-0.88363,1.345732,-0.710874,0.442353,-0.390399,0.147226,0.216771,0.14188,0.141626,0.101551,-0.088517,-0.252075,-0.59223,-0.708405,-0.260802,-0.605893,-0.793277,-1.120249,-1.300756,1.797692,1.679852,1.809217,-0.615825,-1.314891,-1.266297,-1.297998,-1.170091,-1.024898,-1.227308,-1.267779,-1.681743,-1.295375,-1.098097,-1.39925,-1.641399,-1.192793,-1.269256,-1.298321,-1.280626,-1.328449,-1.549328,-1.382359,-1.219539,-1.247305,-1.262398,-1.270488,-0.913832,-0.98045,-0.836486,'\'(-inf-6.266667]\''
-1.160924,-1.170125,-1.148625,-1.169954,-1.028659,-1.233376,-1.316031,-1.294119,-1.410835,-1.209756,-1.508896,-1.148553,-1.12274,-0.983411,-1.532625,-1.226744,-1.48364,-1.391557,2.11254,-0.493627,1.385663,-1.464586,-1.40061,'\'(-inf-14.9]\'',-1.342604,-1.437731,-1.129079,-1.322701,-0.951783,-0.725455,-1.359277,0.091029,-0.40206,-1.211208,0.869587,0.879963,0.825146,-1.361484,-1.483916,-1.5412,-1.526984,-1.499405,-1.479127,0.358399,0.37312,0.424169,-0.815833,0.941447,0.219935,-1.272144,-1.528497,-1.30733,0.58912,-0.427534,-1.43778,-1.841497,-1.259828,-0,-1.076195,-1.146194,0.567777,-0.465332,-0.85728,-0.922397,-0.660211,-0.54629,-0.537243,-0.982083,-0.908669,-0.883146,1.315651,-0.714917,0.651637,-0.531453,0.211039,0.281536,0.193336,0.251351,0.21342,0.018452,-0.183209,-0.536287,-0.656866,-0.074871,-0.530654,-0.812101,-1.162519,-1.340872,1.805786,1.679461,1.809217,-0.614401,-1.310296,-1.260611,-1.296497,-1.168763,-1.024898,-1.227308,-1.265428,-1.681743,-1.293984,-1.097528,-1.397561,-1.638342,-1.192793,-1.268077,-1.295733,-1.279387,-1.326465,-1.547574,-1.37788,-1.218766,-1.244851,-1.260213,-1.269121,-0.913667,-0.979987,-0.836086,'\'(-inf-6.266667]\''
-1.156634,-1.167843,-1.142315,-1.167312,-1.028386,-1.221436,-1.306569,-1.285123,-1.404253,-1.202846,-1.50244,-1.143614,-1.111217,-0.971092,-1.534346,-1.217682,-1.494626,-1.382918,2.142107,-0.528217,1.438337,-1.464274,-1.396927,'\'(-inf-14.9]\'',-1.434628,-1.475837,-1.115759,-1.276751,-0.954054,-0.749279,-1.354984,0.079206,-0.406453,-1.228486,0.871226,0.905201,0.792452,-1.356447,-1.476706,-1.54183,-1.525308,-1.497068,-1.466528,0.292953,0.090854,0.297693,-1.007299,0.21509,-0.022487,-1.112422,-1.794912,-1.579283,-0.18965,-0.45091,-1.65656,-1.912842,-1.238975,-0,-1.071157,-1.144625,0.737132,-0.465086,-0.856809,-0.919983,-0.659807,-0.545836,-0.536689,-0.981471,-0.908488,-0.883067,1.245931,-0.717129,0.788193,-0.605125,0.174971,0.293311,0.325194,0.419165,0.298077,0.018452,-0.196982,-0.469156,-0.567531,0.469643,-0.432843,-0.755631,-0.998724,-1.145306,1.806988,1.679852,1.810197,-0.609654,-1.307232,-1.25919,-1.297998,-1.170091,-1.023217,-1.228665,-1.264253,-1.672133,-1.293984,-1.095823,-1.394183,-1.638342,-1.191005,-1.268077,-1.29444,-1.278149,-1.324817,-1.546292,-1.375657,-1.217477,-1.243624,-1.256936,-1.266387,-0.914333,-0.980022,-0.835243,'\'(-inf-6.266667]\''
-1.153648,-1.164139,-1.145326,-1.179018,-1.028964,-1.212483,-1.293949,-1.268131,-1.363131,-1.14496,-1.483067,-1.145068,-1.105901,-0.966692,-1.551906,-1.205905,-1.487635,-1.346172,2.208175,-0.525024,1.44458,-1.459809,-1.392226,'\'(-inf-14.9]\'',-1.453857,-1.490406,-1.112429,-1.298875,-0.939669,-0.733124,-1.348325,0.10039,-0.409381,-1.245764,0.899899,0.937943,0.814248,-1.351159,-1.47055,-1.532926,-1.521132,-1.494731,-1.452382,0.423845,0.231987,0.360931,-1.539732,-0.703973,-0.537635,-1.492452,-1.978646,-1.671694,-0.475729,-0.69636,-1.65656,-1.87717,-1.248482,-0,-1.068584,-1.142512,0.82181,-0.46525,-0.856759,-0.922044,-0.659691,-0.545654,-0.536597,-0.980825,-0.908292,-0.882808,1.212821,-0.717659,0.809342,-0.639875,0.211039,0.325693,0.318762,0.364303,0.225513,-0.056102,-0.255518,-0.498992,-0.564095,-0.021747,-0.703704,-0.943864,-1.109682,-1.20548,1.812758,1.679982,1.814707,-0.594463,-1.308764,-1.25919,-1.299499,-1.176735,-1.023217,-1.230022,-1.263078,-1.665727,-1.292593,-1.094687,-1.394183,-1.638342,-1.190112,-1.265719,-1.293146,-1.27691,-1.323443,-1.542885,-1.374831,-1.216102,-1.242397,-1.258028,-1.26502,-0.914168,-0.97987,-0.835194,'\'(-inf-6.266667]\''
-1.14917,-1.160729,-1.143885,-1.179464,-1.028917,-1.221436,-1.296052,-1.272129,-1.373001,-1.180382,-1.467996,-1.15146,-1.123623,-0.982972,-1.549928,-1.218587,-1.476649,-1.402368,1.943495,-0.522895,1.482744,-1.446976,-1.377792,'\'(-inf-14.9]\'',-1.511544,-1.494889,-1.129079,-1.314191,-0.955568,-0.692887,-1.343117,0.098912,-0.427683,-1.262401,0.91014,0.942036,0.833072,-1.345871,-1.465274,-1.522494,-1.51957,-1.490992,-1.435583,0.292953,0.090854,0.297693,-1.230239,0.155796,-0.618442,-1.288667,-1.703045,-1.679615,-0.014824,-0.789864,-1.706283,-2.002024,-1.258264,-0,-1.067808,-1.140589,0.991166,-0.465209,-0.856489,-0.919983,-0.65946,-0.545836,-0.536597,-0.980378,-0.908151,-0.882362,1.188991,-0.714652,0.645754,-0.563004,0.274851,0.325693,0.309114,0.338485,0.21342,-0.026929,-0.203869,-0.521369,-0.553787,-0.380329,-0.80904,-0.994059,-1.262909,-1.305771,1.801138,1.679331,1.813727,-0.581646,-1.308764,-1.260611,-1.297998,-1.184708,-1.023217,-1.225951,-1.262725,-1.662523,-1.291201,-1.09355,-1.394183,-1.638342,-1.188324,-1.26454,-1.293146,-1.27691,-1.32268,-1.540861,-1.374672,-1.215215,-1.24117,-1.255844,-1.263653,-0.913811,-0.97961,-0.834702,'\'(-inf-6.266667]\''
-1.149406,-1.161808,-1.142796,-1.179085,-1.029873,-1.218453,-1.291846,-1.268131,-1.377935,-1.192476,-1.465847,-1.145358,-1.123626,-0.986051,-1.534415,-1.213153,-1.479645,-1.415332,1.92488,-0.543117,1.279065,-1.446008,-1.381442,'\'(-inf-14.9]\'',-1.397544,-1.529632,-1.115759,-1.290366,-0.947997,-0.634639,-1.337436,0.108764,-0.421094,-1.259842,0.917103,0.948857,0.840007,-1.340834,-1.458591,-1.51503,-1.511446,-1.48585,-1.423868,0.227507,-0.332544,0.107979,-1.154177,0.140972,-0.315414,-1.288667,-1.693858,-1.661132,-0.316796,-0.941809,-1.537225,-1.957433,-1.259079,-0,-1.066998,-1.138966,1.075852,-0.465086,-0.856001,-0.915804,-0.658767,-0.54529,-0.535951,-0.979631,-0.907972,-0.882038,1.203319,-0.714387,0.625524,-0.561586,0.174971,0.325693,0.193336,0.186807,0.110621,-0.143623,-0.314055,-0.506451,-0.536607,-0.353768,-0.80904,-0.968962,-1.051561,-1.100176,1.802981,1.679461,1.811766,-0.577373,-1.310296,-1.263454,-1.297998,-1.187365,-1.023217,-1.227308,-1.262255,-1.656116,-1.293984,-1.092982,-1.394183,-1.641399,-1.188324,-1.26454,-1.293146,-1.275671,-1.321581,-1.529898,-1.374322,-1.214413,-1.24117,-1.254751,-1.26502,-0.913496,-0.978535,-0.833256,'\'(-inf-6.266667]\''
-1.142644,-1.1544,-1.139529,-1.191674,-1.036329,-1.212343,-1.277767,-1.258743,-1.359872,-1.220811,-1.407322,-1.148485,-1.128572,-0.987078,-1.541399,-1.209589,-1.447056,-1.398669,1.892504,-0.529281,1.244311,-1.446071,-1.383349,'\'(-inf-14.9]\'',-1.361833,-1.407472,-1.115204,-1.276751,-0.953297,-0.668904,-1.330871,0.132904,-0.425487,-1.252803,0.93144,0.94681,0.877655,-1.335829,-1.453843,-1.510084,-1.511701,-1.481176,-1.410827,0.358399,-0.332544,0.234455,-0.95222,0.659799,0.139128,-1.145468,-1.960273,-0.995773,1.876473,-0.263901,-1.353251,-1.787988,-1.265435,-0,-1.066441,-1.13692,1.075852,-0.465106,-0.855766,-0.912802,-0.658998,-0.545017,-0.535582,-0.979263,-0.90782,-0.88166,1.159877,-0.711957,0.521494,-0.498829,0.047346,0.24621,0.116151,0.080309,-0.025435,-0.240867,-0.40358,-0.577312,-0.608762,-0.340487,-0.688657,-0.843473,-0.908901,-0.974813,1.808991,1.679461,1.813531,-0.594463,-1.310296,-1.263454,-1.297998,-1.186037,-1.023217,-1.213735,-1.26249,-1.64971,-1.293984,-1.091845,-1.394183,-1.641399,-1.18743,-1.263361,-1.291852,-1.27691,-1.321551,-1.540456,-1.374831,-1.213639,-1.239944,-1.251474,-1.263653,-0.914113,-0.979191,-0.832399,'\'(-inf-6.266667]\''
-1.14176,-1.154547,-1.142091,-1.195255,-1.037612,-1.227102,-1.286294,-1.266561,-1.386904,-1.251571,-1.427791,-1.147942,-1.150888,-1.004315,-1.5654,-1.223045,-1.440854,-1.427176,1.635131,-0.545777,1.270783,-1.449755,-1.385486,'\'(-inf-14.9]\'',-1.378315,-1.398506,-1.131854,-1.324402,-0.954811,-0.575385,-1.330176,0.098419,-0.440128,-1.260482,0.908911,0.934532,0.840998,-1.332933,-1.452963,-1.510803,-1.512269,-1.476035,-1.402428,-0.165169,-0.473677,-0.208211,-0.805342,1.000742,-0.214405,-1.073868,-1.455003,-1.228121,0.461973,-0.322342,-1.412918,-1.627461,-1.267077,-0,-1.065938,-1.136129,1.245207,-0.464881,-0.855177,-0.909153,-0.659287,-0.545381,-0.535858,-0.978912,-0.907704,-0.881508,1.152803,-0.70969,0.431838,-0.438526,0.063993,0.143176,0.064695,0.031901,-0.037529,-0.227901,-0.386364,-0.640713,-0.660302,-0.473295,-0.703704,-0.849747,-1.030426,-1.080118,1.813158,1.679592,1.819609,-0.589241,-1.311828,-1.264876,-1.299499,-1.195338,-1.022209,-1.211021,-1.261315,-1.643303,-1.291201,-1.091277,-1.394183,-1.638342,-1.186537,-1.262182,-1.291852,-1.275671,-1.32094,-1.543863,-1.374513,-1.21278,-1.23749,-1.251474,-1.260918,-0.915198,-0.979841,-0.831512,'\'(-inf-6.266667]\''
-1.137293,-1.151235,-1.138504,-1.188523,-1.036345,-1.234353,-1.282637,-1.263024,-1.380539,-1.241645,-1.426138,-1.148681,-1.17218,-1.017548,-1.584542,-1.22903,-1.419907,-1.405341,1.478904,-0.592074,1.211761,-1.455781,-1.390976,'\'(-inf-14.9]\'',-1.39205,-1.39066,-1.14462,-1.327806,-0.97071,-0.426924,-1.326989,0.064919,-0.449645,-1.277759,0.893345,0.916797,0.829109,-1.327613,-1.445049,-1.50163,-1.501276,-1.469492,-1.392703,-0.034277,-0.61481,-0.144973,-0.981071,-0.52609,-0.032588,-0.958206,-1.482564,-1.101386,0.016962,-0.100268,-1.194138,-1.511525,-1.271186,-0,-1.066812,-1.134997,1.245207,-0.464512,-0.854403,-0.900971,-0.659345,-0.545654,-0.536043,-0.978213,-0.90757,-0.881168,1.128291,-0.708086,0.374766,-0.401128,-0.066407,0.101962,-0.031787,-0.087506,-0.146374,-0.292731,-0.417353,-0.603418,-0.649994,-0.327206,-0.500558,-0.611319,-0.729256,-0.829393,1.810434,1.675559,1.823922,-0.582595,-1.311828,-1.266297,-1.299499,-1.200653,-1.022209,-1.211021,-1.261315,-1.6401,-1.291201,-1.090709,-1.394183,-1.638342,-1.185643,-1.262182,-1.290559,-1.275671,-1.320666,-1.542851,-1.37499,-1.212236,-1.23749,-1.250382,-1.260918,-0.915775,-0.980245,-0.830418,'\'(-inf-6.266667]\''
-1.137908,-1.150965,-1.131906,-1.189135,-1.036024,-1.222287,-1.269768,-1.248756,-1.346585,-1.233262,-1.373328,-1.149016,-1.16142,-1.018832,-1.551329,-1.22137,-1.399078,-1.371723,1.503671,-0.575578,1.236463,-1.441762,-1.376411,'\'(-inf-14.9]\'',-1.445616,-1.360401,-1.14906,-1.33121,-0.975253,-0.416403,-1.329009,0.026986,-0.468679,-1.286078,0.867949,0.875188,0.828118,-1.327204,-1.453491,-1.495065,-1.515593,-1.462948,-1.384303,-0.165169,-0.755943,-0.208211,-0.889272,0.052031,-0.05279,-0.875591,-1.620364,-0.890161,0.779839,0.226998,-1.184193,-1.493689,-1.269214,-0,-1.066569,-1.134247,1.245207,-0.464635,-0.853999,-0.899322,-0.659287,-0.545654,-0.535951,-0.976899,-0.907426,-0.881026,1.134273,-0.706886,0.326576,-0.372695,-0.19958,-0.018735,-0.16686,-0.194003,-0.218937,-0.302456,-0.400137,-0.610877,-0.656866,-0.008467,-0.161981,-0.278773,-0.486206,-0.598725,1.803382,1.673222,1.829608,-0.580696,-1.311828,-1.264876,-1.299499,-1.205968,-1.022209,-1.211021,-1.260139,-1.633693,-1.288419,-1.089572,-1.394183,-1.635284,-1.184749,-1.261003,-1.290559,-1.275671,-1.319781,-1.537049,-1.375275,-1.211234,-1.236263,-1.248197,-1.259551,-0.916022,-0.980391,-0.830715,'\'(-inf-6.266667]\''
-1.136551,-1.149641,-1.13197,-1.189901,-1.036603,-1.233553,-1.279706,-1.260981,-1.385664,-1.248531,-1.429798,-1.147364,-1.173916,-1.023323,-1.570685,-1.229775,-1.359811,-1.378812,1.317895,-0.589413,1.174034,-1.441887,-1.377661,'\'(-inf-14.9]\'',-1.398917,-1.350314,-1.155165,-1.314191,-0.991152,-0.543823,-1.324148,-0.00405,-0.481124,-1.295677,0.849106,0.863592,0.799387,-1.320373,-1.440125,-1.495065,-1.498293,-1.456405,-1.375683,-0.165169,-0.755943,-0.208211,-0.33061,0.526386,1.02801,-0.78196,-1.115095,-0.781908,0.525546,0.238686,-1.000218,-1.324244,-1.253935,-0,-1.064045,-1.133756,1.329885,-0.464328,-0.853141,-0.890258,-0.659229,-0.545745,-0.536043,-0.976384,-0.90726,-0.880781,1.124166,-0.705617,0.277315,-0.34057,-0.230099,-0.065836,-0.244045,-0.223048,-0.206843,-0.22466,-0.310611,-0.562394,-0.612198,0.190746,0.101357,-0.046619,-0.359397,-0.478377,1.796971,1.672831,1.825099,-0.581646,-1.310296,-1.263454,-1.299499,-1.200653,-1.022209,-1.21645,-1.260139,-1.630489,-1.287028,-1.089004,-1.392494,-1.632227,-1.184749,-1.259824,-1.290559,-1.274432,-1.318773,-1.532023,-1.374259,-1.210489,-1.235036,-1.24492,-1.258184,-0.916111,-0.980544,-0.830937,'\'(-inf-6.266667]\''
-1.13363,-1.146255,-1.127839,-1.182957,-1.032807,-1.233716,-1.278148,-1.261264,-1.379719,-1.260211,-1.408442,-1.149757,-1.176247,-1.027335,-1.56751,-1.231447,-1.384852,-1.336016,1.22162,-0.593138,1.102179,-1.426369,-1.363391,'\'(-inf-14.9]\'',-1.229977,-1.37497,-1.15239,-1.300577,-0.993424,-0.561357,-1.320045,-0.012918,-0.491373,-1.294397,0.840914,0.847903,0.802359,-1.315714,-1.437135,-1.495695,-1.492555,-1.448927,-1.362421,-0.099723,-0.755943,-0.208211,-0.477488,0.333679,0.543165,-0.75993,-1.115095,-0.536359,0.875198,0.57764,-0.935579,-1.065618,-1.248889,-0,-1.060979,-1.133415,1.160529,-0.464062,-0.852333,-0.887079,-0.658883,-0.545563,-0.535858,-0.975035,-0.907049,-0.880237,1.112494,-0.70652,0.312191,-0.365449,-0.219002,-0.071724,-0.263341,-0.194003,-0.107069,-0.140381,-0.252075,-0.487804,-0.546915,0.575889,0.266883,0.034949,-0.274858,-0.40316,1.797452,1.672961,1.813923,-0.589716,-1.3057,-1.25919,-1.297998,-1.196667,-1.022209,-1.215092,-1.257789,-1.624083,-1.287028,-1.087867,-1.390805,-1.62917,-1.182962,-1.258645,-1.287971,-1.273193,-1.317094,-1.52956,-1.371749,-1.209315,-1.233809,-1.241643,-1.258184,-0.915775,-0.980245,-0.831194,'\'(-inf-6.266667]\''
-1.12984,-1.142281,-1.130337,-1.189043,-1.033711,-1.236629,-1.282868,-1.268665,-1.382613,-1.245904,-1.427045,-1.158605,-1.176669,-1.031823,-1.58759,-1.236211,-1.412249,-1.364314,1.086196,-0.624535,1.093012,-1.420311,-1.355435,'\'(-inf-14.9]\'',-1.315134,-1.397385,-1.15794,-1.319297,-0.992666,-0.580996,-1.315689,-0.007499,-0.480392,-1.26944,0.829444,0.826757,0.805331,-1.311717,-1.430804,-1.490569,-1.486561,-1.442851,-1.360211,-0.034277,-0.61481,-0.144973,-0.173241,1.341684,0.745184,-0.737899,-0.885427,-0.515236,0.906985,0.846465,-0.985302,-1.128045,-1.259046,-0,-1.059204,-1.132678,1.245207,-0.463837,-0.85161,-0.882134,-0.65842,-0.545108,-0.535397,-0.973746,-0.906848,-0.879911,1.071556,-0.70529,0.271196,-0.32907,-0.271716,0.007759,-0.047867,0.073855,0.053175,-0.069068,-0.203869,-0.435591,-0.509119,1.532108,0.575365,0.242005,-0.100496,-0.252725,1.803141,1.67387,1.806276,-0.602059,-1.3057,-1.260611,-1.297998,-1.197996,-1.022209,-1.21645,-1.256613,-1.617676,-1.284245,-1.087299,-1.387427,-1.626112,-1.182962,-1.257466,-1.286678,-1.271955,-1.315293,-1.517146,-1.369081,-1.208599,-1.230129,-1.237273,-1.25545,-0.915775,-0.980061,-0.829609,'\'(-inf-6.266667]\''
-1.126321,-1.138528,-1.128255,-1.176474,-1.03368,-1.212161,-1.265884,-1.254296,-1.363314,-1.233637,-1.403511,-1.15065,-1.1432,-1.005947,-1.554893,-1.214246,-1.436479,-1.338044,1.296773,-0.576642,1.180982,-1.412568,-1.347314,'\'(-inf-14.9]\'',-1.379688,-1.324537,-1.141844,-1.353334,-0.955568,-0.65137,-1.307641,0.049155,-0.580686,-1.263681,0.879008,0.904519,0.812266,-1.30731,-1.426583,-1.47537,-1.48372,-1.435372,-1.350043,0.031169,-0.473677,-0.081735,-0.060459,0.17062,1.159322,-0.412946,-0.674133,-0.37794,0.779839,0.93997,-0.930606,-0.7624,-1.253108,-0,-1.058494,-1.131137,1.160529,-0.463509,-0.850852,-0.876896,-0.658478,-0.54529,-0.535582,-0.974021,-0.906645,-0.879374,1.052705,-0.704137,0.234421,-0.29391,-0.241197,0.03131,-0.028571,0.109354,0.089457,-0.043136,-0.162549,-0.420673,-0.485068,1.545389,0.552793,0.24828,-0.137482,-0.272783,1.813158,1.676599,1.802355,-0.611553,-1.304168,-1.25919,-1.297998,-1.197996,-1.019856,-1.21645,-1.255438,-1.611269,-1.282854,-1.08673,-1.384049,-1.619998,-1.182068,-1.256287,-1.28409,-1.269477,-1.313645,-1.508612,-1.366603,-1.20774,-1.228902,-1.236181,-1.252716,-0.916022,-0.979809,-0.828581,'\'(-inf-6.266667]\''
-1.125736,-1.137301,-1.122362,-1.173126,-1.03,-1.214275,-1.263964,-1.253897,-1.359362,-1.237035,-1.392795,-1.152899,-1.15075,-1.016243,-1.521786,-1.214452,-1.451829,-1.289669,1.220785,-0.595799,1.131936,-1.409446,-1.344453,'\'(-inf-14.9]\'',-1.280797,-1.361521,-1.137959,-1.276751,-0.984338,-0.634302,-1.306978,-0.006021,-0.60338,-1.262401,0.83354,0.803565,0.848924,-1.303123,-1.422538,-1.479687,-1.474573,-1.429296,-1.342749,0.031169,-0.473677,-0.081735,-0.02374,1.608509,0.522963,-0.451499,-0.82112,-0.245924,1.145384,1.24386,-0.821216,-0.949682,-1.258264,-0,-1.058098,-1.130346,1.160529,-0.463304,-0.850196,-0.872775,-0.658189,-0.544926,-0.535212,-0.973744,-0.906397,-0.878917,1.060849,-0.703109,0.20325,-0.261762,-0.216227,0.03131,0.01967,0.151307,0.122715,-0.013963,-0.155663,-0.409484,-0.461016,1.571951,0.552793,0.204358,-0.169184,-0.282812,1.818287,1.67413,1.799218,-0.614401,-1.304168,-1.257769,-1.296497,-1.199324,-1.019856,-1.21645,-1.254263,-1.611269,-1.27868,-1.085594,-1.384049,-1.613883,-1.181174,-1.253929,-1.282797,-1.268238,-1.312027,-1.501089,-1.365174,-1.20648,-1.227675,-1.232903,-1.252716,-0.917333,-0.980063,-0.826791,'\'(-inf-6.266667]\''
-1.124767,-1.137007,-1.129024,-1.179729,-1.032029,-1.20369,-1.256763,-1.245038,-1.332423,-1.216902,-1.362673,-1.156523,-1.13621,-1.011216,-1.490071,-1.204506,-1.381171,-1.281651,1.275136,-0.559081,1.016527,-1.397518,-1.337976,'\'(-inf-14.9]\'',-1.194267,-1.286432,-1.124639,-1.263136,-0.972225,-0.632666,-1.305053,-0.00405,-0.616558,-1.263041,0.835998,0.796062,0.865766,-1.301329,-1.422538,-1.479417,-1.473011,-1.424622,-1.338549,0.031169,-0.61481,-0.081735,0.159858,1.312037,1.270433,-0.346853,-0.830307,-0.243284,0.986451,1.220484,-0.801327,-0.869418,-1.253009,-0,-1.055341,-1.130401,1.245207,-0.46312,-0.849607,-0.869302,-0.657785,-0.544471,-0.534843,-0.973289,-0.906138,-0.87867,1.047963,-0.703226,0.207444,-0.259852,-0.246746,0.051917,0.064695,0.186807,0.16202,0.041143,-0.093684,-0.346083,-0.419784,1.89069,0.763463,0.386317,-0.02124,-0.167478,1.817085,1.673611,1.798237,-0.623421,-1.302636,-1.257769,-1.296497,-1.197996,-1.019856,-1.205592,-1.253088,-1.604862,-1.280071,-1.084457,-1.38236,-1.610826,-1.179387,-1.25275,-1.281503,-1.266999,-1.310532,-1.489721,-1.364348,-1.205363,-1.226448,-1.230719,-1.251349,-0.917773,-0.980102,-0.824884,'\'(-inf-6.266667]\''
-1.120015,-1.131487,-1.12422,-1.154275,-1.028943,-1.184955,-1.234304,-1.218669,-1.289108,-1.154837,-1.342257,-1.145136,-1.123238,-1.002289,-1.446832,-1.18251,-1.3442,-1.299089,1.482229,-0.573449,1.064501,-1.397612,-1.335543,'\'(-inf-14.9]\'',-1.262941,-1.350314,-1.114649,-1.239311,-0.969196,-0.681763,-1.289966,0.102853,-0.616558,-1.243204,0.911778,0.918161,0.871711,-1.293113,-1.409524,-1.466647,-1.461875,-1.418546,-1.326834,0.162061,-0.61481,-0.081735,0.283131,1.193448,1.280534,-0.054946,-0.811933,-0.198399,0.906985,1.162043,-0.657131,-0.887254,-1.249043,-0,-1.054501,-1.12871,0.991166,-0.462956,-0.849102,-0.86942,-0.657438,-0.544471,-0.534751,-0.972681,-0.90586,-0.87788,1.034974,-0.705562,0.294182,-0.320099,-0.177385,0.113737,0.119367,0.244896,0.234584,0.109214,-0.000714,-0.252846,-0.351065,1.87741,0.733368,0.398866,-0.02124,-0.192551,1.800417,1.673741,1.56021,-0.615351,-1.302636,-1.256347,-1.294996,-1.200653,-1.019856,-1.175732,-1.250737,-1.601659,-1.275897,-1.083889,-1.380671,-1.607769,-1.179387,-1.251571,-1.280209,-1.26576,-1.308761,-1.482974,-1.361902,-1.204274,-1.223995,-1.227441,-1.249982,-0.918116,-0.97999,-0.824103,'\'(-inf-6.266667]\''
-1.117912,-1.129107,-1.114772,-1.132697,-1.025084,-1.170643,-1.221435,-1.201975,-1.255128,-1.107901,-1.32439,-1.14071,-1.10772,-0.996199,-1.393387,-1.170126,-1.340758,-1.266411,1.565685,-0.559613,1.136974,-1.388245,-1.324101,'\'(-inf-14.9]\'',-1.350845,-1.333503,-1.117424,-1.269944,-0.959354,-0.658617,-1.283748,0.123051,-0.62095,-1.242564,0.928163,0.935897,0.885581,-1.288202,-1.402313,-1.469885,-1.448979,-1.411536,-1.317993,-0.034277,-0.473677,-0.018497,-0.320119,0.348503,0.81589,-0.682822,-0.940547,-0.150873,1.097704,1.197108,-0.761549,-0.673219,-1.222021,-0,-1.05132,-1.127332,0.737132,-0.462771,-0.848497,-0.865888,-0.656687,-0.543926,-0.53429,-0.970772,-0.905535,-0.877377,1.041037,-0.703506,0.217564,-0.257446,-0.071955,0.196165,0.196552,0.322349,0.264819,0.09949,-0.017931,-0.208092,-0.27891,1.505547,0.424886,0.129065,-0.158617,-0.277797,1.798654,1.672184,1.059254,-0.590665,-1.301104,-1.256347,-1.291995,-1.195338,-1.019856,-1.175732,-1.249562,-1.592049,-1.275897,-1.082752,-1.377293,-1.601654,-1.177599,-1.250392,-1.278916,-1.264522,-1.307907,-1.48763,-1.361425,-1.203071,-1.222768,-1.225257,-1.247247,-0.918404,-0.979179,-0.823962,'\'(-inf-6.266667]\''
-1.113778,-1.124716,-1.110192,-1.142647,-1.027576,-1.172091,-1.228031,-1.211523,-1.283533,-1.14382,-1.341123,-1.13875,-1.102473,-0.989288,-1.40665,-1.172877,-1.331077,-1.27727,1.459881,-0.522363,1.356258,-1.416752,-1.349517,'\'(-inf-14.9]\'',-1.567857,-1.351435,-1.107434,-1.230802,-0.963139,-0.637342,-1.286778,0.063934,-0.639984,-1.328313,0.934307,0.949539,0.880627,-1.287447,-1.410579,-1.471773,-1.460768,-1.407796,-1.304952,-0.230615,-0.473677,-0.208211,-0.131276,0.644975,0.866395,-0.704853,-0.481212,-0.509956,0.160002,0.893218,-0.8958,-0.887254,-1.239746,-0,-1.051704,-1.126064,0.991166,-0.462567,-0.848059,-0.864063,-0.656745,-0.543471,-0.533828,-0.970264,-0.905246,-0.878656,0.8567,-0.703708,0.234155,-0.263026,-0.044211,0.20794,0.2062,0.241669,0.180161,0.031418,-0.076467,-0.215551,-0.309834,1.014156,0.199168,-0.03407,-0.216737,-0.368058,1.81981,1.674909,1.064744,-0.569778,-1.299572,-1.256347,-1.291995,-1.196667,-1.019856,-1.170303,-1.248386,-1.585642,-1.273115,-1.082184,-1.375604,-1.601654,-1.176705,-1.248034,-1.276328,-1.263283,-1.305404,-1.477341,-1.357963,-1.201582,-1.217861,-1.216518,-1.241779,-0.91929,-0.979905,-0.823669,'\'(-inf-6.266667]\''
-1.10798,-1.11743,-1.109455,-1.145743,-1.025973,-1.167283,-1.219859,-1.204452,-1.272383,-1.124987,-1.338058,-1.138337,-1.102396,-0.986966,-1.425293,-1.167442,-1.312072,-1.234688,1.459614,-0.543649,1.183373,-1.396394,-1.332124,'\'(-inf-14.9]\'',-1.221736,-1.417558,-1.126859,-1.271646,-0.971468,-0.660721,-1.273806,0.162462,-0.628271,-1.209288,0.940042,0.947493,0.89747,-1.280805,-1.395454,-1.457114,-1.44699,-1.40172,-1.299426,0.096615,-0.473677,0.044741,0.23592,0.615328,0.997707,-0.005377,-0.444465,-0.079585,0.843412,1.454245,-0.667075,-0.655382,-1.237928,-1.550442,-1.050782,-1.124959,0.991166,-0.462485,-0.847554,-0.861532,-0.657034,-0.543653,-0.534197,-0.970205,-0.904925,-0.877629,0.846962,-0.70705,0.371735,-0.351469,-0.016466,0.178502,0.199768,0.219079,0.174114,0.047626,-0.066137,-0.241657,-0.323577,0.841506,0.154024,-0.084266,-0.311844,-0.443276,1.823336,1.674389,1.06494,-0.557435,-1.29804,-1.253504,-1.290494,-1.195338,-1.019856,-1.133657,-1.247211,-1.576032,-1.271723,-1.081616,-1.373915,-1.598597,-1.175812,-1.246855,-1.275035,-1.262044,-1.303206,-1.472686,-1.355326,-1.199864,-1.216634,-1.221979,-1.240412,-0.919489,-0.980066,-0.823306,'\'(-inf-6.266667]\''
-1.101436,-1.113039,-1.097348,-1.138457,-1.02266,-1.163079,-1.216129,-1.200143,-1.259925,-1.127551,-1.312659,-1.134428,-1.09781,-0.986823,-1.415135,-1.165476,-1.295536,-1.249274,1.416019,-0.507463,1.385732,-1.395582,-1.327192,'\'(-inf-14.9]\'',-1.302773,-1.485923,-1.138514,-1.307384,-0.971468,-0.733433,-1.271281,0.163447,-0.637788,-1.215048,0.945367,0.950221,0.906386,-1.27835,-1.392112,-1.450729,-1.442076,-1.397514,-1.294342,0.031169,-0.473677,0.044741,0.094287,0.17062,1.017909,-0.087992,-0.563892,-0.005656,2.003619,0.88153,-0.696909,-0.566201,-1.224411,-1.485501,-1.047576,-1.124114,0.991166,-0.462321,-0.847083,-0.859413,-0.656861,-0.543653,-0.534474,-0.969567,-0.904602,-0.876977,0.806517,-0.708343,0.434566,-0.38451,0.077865,0.219715,0.260873,0.270714,0.225513,0.102731,-0.004158,-0.237928,-0.306398,0.615732,0.026117,-0.184657,-0.486206,-0.588696,1.809552,1.67387,1.046313,-0.569303,-1.296508,-1.252083,-1.288993,-1.194009,-1.019856,-1.124156,-1.246036,-1.566422,-1.271723,-1.080479,-1.372226,-1.595539,-1.174024,-1.245676,-1.273741,-1.260805,-1.301436,-1.467154,-1.353897,-1.198289,-1.21418,-1.216518,-1.237678,-0.919372,-0.980037,-0.822994,'\'(-inf-6.266667]\''
-1.097978,-1.110292,-1.100071,-1.140413,-1.022981,-1.161124,-1.219757,-1.207024,-1.263481,-1.126422,-1.319625,-1.136682,-1.088615,-0.982802,-1.364515,-1.164258,-1.313443,-1.286784,1.363499,-0.478195,1.649543,-1.395145,-1.321208,'\'(-inf-14.9]\'',-1.598074,-1.40523,-1.168485,-1.348228,-0.994181,-0.715664,-1.263044,0.2068,-0.53603,-1.206729,0.971583,0.981599,0.92422,-1.272904,-1.379274,-1.442006,-1.429065,-1.393307,-1.286385,-0.099723,-0.897076,-0.271449,0.325096,0.808035,1.118919,-0.043931,-0.306664,-0.227442,1.145384,0.858154,-0.736687,-0.744564,-1.237036,-1.538148,-1.046849,-1.122423,1.075852,-0.462096,-0.846663,-0.857765,-0.656572,-0.543653,-0.534474,-0.967951,-0.90429,-0.876199,0.808596,-0.703218,0.246915,-0.239885,0.274851,0.26976,0.32841,0.322349,0.264819,0.080041,-0.038591,-0.200633,-0.265166,-0.154556,-0.56075,-0.692886,-0.808511,-0.884552,1.815001,1.676079,1.050431,-0.59114,-1.293444,-1.24924,-1.288993,-1.19268,-1.019856,-1.162159,-1.24486,-1.556812,-1.273115,-1.079911,-1.370537,-1.595539,-1.17313,-1.244497,-1.272447,-1.259566,-1.299726,-1.463274,-1.351737,-1.197057,-1.211726,-1.215425,-1.236311,-0.918995,-0.979736,-0.823661,'\'(-inf-6.266667]\''
-1.093902,-1.104747,-1.09501,-1.133515,-1.022082,-1.14595,-1.20754,-1.194295,-1.252204,-1.111198,-1.313112,-1.129872,-1.070148,-0.972194,-1.316538,-1.148562,-1.294943,-1.203719,1.490639,-0.472341,1.620907,-1.377129,-1.303256,'\'(-inf-14.9]\'',-1.418146,-1.529632,-1.167375,-1.322701,-1.004023,-0.715664,-1.260014,0.230447,-0.535298,-1.213768,0.99575,1.000698,0.954933,-1.271393,-1.384022,-1.434002,-1.424719,-1.388633,-1.280417,0.162061,-0.050279,0.107979,-0.057837,0.644975,0.755285,-0.363376,-0.683319,-0.198399,0.748052,1.313988,-0.791382,-0.673219,-1.242687,-1.60516,-1.048342,-1.120609,1.075852,-0.461809,-0.846124,-0.854999,-0.656514,-0.543835,-0.534659,-0.967269,-0.903986,-0.875536,0.790774,-0.701504,0.197768,-0.193531,0.374732,0.378682,0.418459,0.432074,0.394828,0.193493,0.040605,-0.178256,-0.24455,-0.048309,-0.56075,-0.76818,-0.961738,-1.029973,1.804584,1.675948,1.025726,-0.601584,-1.293444,-1.24924,-1.288993,-1.195338,-1.019856,-1.194733,-1.243685,-1.547202,-1.273115,-1.079342,-1.370537,-1.595539,-1.172237,-1.244497,-1.271154,-1.258328,-1.297712,-1.458518,-1.349005,-1.195625,-1.209273,-1.211056,-1.233576,-0.918542,-0.979393,-0.823469,'\'(-inf-6.266667]\''
-1.090304,-1.100332,-1.088701,-1.126506,-1.019769,-1.140928,-1.202688,-1.189057,-1.239181,-1.099358,-1.300422,-1.13091,-1.065173,-0.970601,-1.308507,-1.145914,-1.289923,-1.205516,1.455898,-0.473938,1.379647,-1.368605,-1.300791,'\'(-inf-14.9]\'',-1.159929,-1.45006,-1.161825,-1.34993,-0.984338,-0.740914,-1.252028,0.23488,-0.531637,-1.231046,1.011316,1.009566,0.979701,-1.263712,-1.372239,-1.422221,-1.418697,-1.386297,-1.262292,0.162061,-0.191412,0.107979,-0.065705,0.74874,0.81589,-0.561653,-0.508772,-0.190478,1.256636,0.706209,-0.647186,-0.726728,-1.238743,-1.605701,-1.048568,-1.119518,0.991166,-0.461522,-0.845501,-0.853998,-0.656052,-0.543562,-0.534382,-0.966085,-0.903606,-0.874969,0.773357,-0.699456,0.139554,-0.147024,0.360859,0.399289,0.373435,0.370757,0.346452,0.131905,-0.011044,-0.174526,-0.230806,-0.207679,-0.673609,-0.837198,-0.93532,-0.989857,1.787434,1.671794,1.016707,-0.606331,-1.291912,-1.247819,-1.287493,-1.197996,-1.019856,-1.190662,-1.241335,-1.540795,-1.270332,-1.078774,-1.367159,-1.592482,-1.170449,-1.24096,-1.268566,-1.25585,-1.295941,-1.454537,-1.347512,-1.19405,-1.209273,-1.211056,-1.232209,-0.917663,-0.978477,-0.824091,'\'(-inf-6.266667]\''
-1.085514,-1.094763,-1.081783,-1.11698,-1.017966,-1.14303,-1.207335,-1.19469,-1.244288,-1.109909,-1.299756,-1.13535,-1.063938,-0.971322,-1.280972,-1.149744,-1.304816,-1.195481,1.341862,-0.426577,1.53239,-1.373289,-1.303914,'\'(-inf-14.9]\'',-1.308267,-1.433248,-1.15017,-1.309086,-0.98661,-0.728523,-1.245053,0.266902,-0.511871,-1.216328,1.026472,1.034804,0.979701,-1.258802,-1.364853,-1.413228,-1.410431,-1.378818,-1.25544,0.096615,-0.191412,0.044741,0.214937,1.297214,1.088616,-0.115531,-0.857867,-0.074304,0.811625,0.823089,-0.458239,-0.512692,-1.240175,-1.543732,-1.050838,-1.118754,0.906488,-0.461297,-0.844997,-0.854233,-0.65559,-0.543289,-0.533921,-0.964717,-0.903411,-0.874061,0.771782,-0.699611,0.156425,-0.16436,0.349762,0.381626,0.305898,0.296532,0.246678,0.050867,-0.086797,-0.189444,-0.26173,-0.579542,-0.824087,-0.943864,-0.930036,-1.009915,1.782706,1.658359,1.027294,-0.621997,-1.29038,-1.246397,-1.285992,-1.194009,-1.019856,-1.196091,-1.238984,-1.527981,-1.270332,-1.077637,-1.36547,-1.586367,-1.168662,-1.239781,-1.267273,-1.253372,-1.294262,-1.447925,-1.345606,-1.192847,-1.206819,-1.206686,-1.230842,-0.916709,-0.977733,-0.823789,'\'(-inf-6.266667]\''
-1.081884,-1.091304,-1.079733,-1.134161,-1.016057,-1.139207,-1.193821,-1.181417,-1.218896,-1.094144,-1.269063,-1.13129,-1.07321,-0.984162,-1.254987,-1.143557,-1.282752,-1.195657,1.351249,-0.394116,1.739784,-1.378253,-1.305361,'\'(-inf-14.9]\'',-1.311014,-1.507217,-1.168485,-1.355036,-0.991152,-0.713794,-1.238615,0.277247,-0.50455,-1.19649,1.021966,1.011612,1.002488,-1.253041,-1.353773,-1.405584,-1.399494,-1.368536,-1.250135,0.031169,-0.473677,-0.018497,0.170349,1.252743,0.684578,-0.1651,-0.527145,-0.03998,1.17717,0.928282,-0.562657,-0.494856,-1.241751,-1.549767,-1.048265,-1.117022,1.245207,-0.46103,-0.844357,-0.850466,-0.655474,-0.543289,-0.533921,-0.964467,-0.903275,-0.873473,0.749052,-0.701317,0.227021,-0.218955,0.349762,0.290367,0.235145,0.238442,0.180161,0.018452,-0.114343,-0.271493,-0.316705,-0.885001,-0.906851,-1.000334,-1.051561,-1.095161,1.788957,1.650268,1.029451,-0.626744,-1.288849,-1.244976,-1.285992,-1.19268,-1.019856,-1.197448,-1.237809,-1.518371,-1.268941,-1.077069,-1.362092,-1.58331,-1.166874,-1.237423,-1.265979,-1.252133,-1.292004,-1.440841,-1.342524,-1.191358,-1.205592,-1.205594,-1.230842,-0.916207,-0.976972,-0.822141,'\'(-inf-6.266667]\''
-1.078153,-1.086496,-1.08079,-1.120297,-1.019191,-1.134,-1.188705,-1.174452,-1.210342,-1.081439,-1.266012,-1.126363,-1.068176,-0.982457,-1.233527,-1.142872,-1.280261,-1.206363,1.293609,-0.356866,1.927243,-1.376786,-1.301119,'\'(-inf-14.9]\'',-1.463472,-1.489285,-1.178475,-1.34993,-1.007051,-0.753072,-1.233754,0.296953,-0.491373,-1.170894,1.021147,1.009566,1.003479,-1.249453,-1.345683,-1.398209,-1.391796,-1.363394,-1.24461,0.162061,-0.050279,0.107979,0.330341,1.48992,0.896698,-0.154084,-0.315851,0.242534,1.002344,1.594502,-0.358793,-0.316493,-1.2244,-1.5862,-1.045878,-1.116067,1.075852,-0.460846,-0.843651,-0.846051,-0.655416,-0.543198,-0.533828,-0.963716,-0.902998,-0.8727,0.744858,-0.698833,0.153588,-0.159261,0.2804,0.272704,0.267305,0.244896,0.186208,0.011969,-0.10057,-0.290141,-0.327013,-0.526418,-0.7338,-0.818375,-0.945887,-0.984842,1.78479,1.645662,1.022197,-0.624845,-1.285785,-1.242133,-1.284491,-1.190023,-1.019856,-1.196091,-1.236633,-1.508761,-1.268941,-1.075932,-1.360403,-1.580253,-1.16598,-1.236244,-1.264685,-1.250895,-1.290081,-1.431497,-1.340777,-1.189897,-1.201912,-1.203409,-1.226741,-0.916777,-0.976995,-0.820283,'\'(-inf-6.266667]\''
-1.076796,-1.085146,-1.079541,-1.106694,-1.015148,-1.131261,-1.185143,-1.171311,-1.19669,-1.06494,-1.257378,-1.122379,-1.066734,-0.974078,-1.244178,-1.134921,-1.267226,-1.217931,1.324456,-0.261612,2.116799,-1.375069,-1.29941,'\'(-inf-14.9]\'',-1.500556,-1.469112,-1.17237,-1.334613,-1.005537,-0.776451,-1.226274,0.31124,-0.827395,-1.149776,1.037941,1.022526,1.025275,-1.242905,-1.337417,-1.388587,-1.382819,-1.354514,-1.237094,0.162061,-0.050279,0.171217,0.364438,0.74874,1.179524,0.071731,-0.380158,0.129,1.12949,1.185419,-0.363766,-0.450265,-1.209407,-1.520809,-1.042621,-1.114363,0.991166,-0.46058,-0.842977,-0.844639,-0.654954,-0.542743,-0.533275,-0.96252,-0.902614,-0.871447,0.791209,-0.696885,0.101632,-0.122399,0.316468,0.266817,0.318762,0.296532,0.22249,0.03466,-0.059251,-0.245387,-0.309834,-0.539699,-0.778944,-0.824649,-0.951171,-1.024958,1.781985,1.639157,1.026706,-0.626269,-1.285785,-1.240712,-1.28299,-1.187365,-1.019856,-1.193376,-1.234283,-1.499151,-1.26755,-1.074796,-1.357025,-1.580253,-1.164193,-1.235065,-1.262098,-1.248417,-1.287639,-1.423739,-1.33741,-1.188294,-1.200685,-1.199039,-1.224007,-0.916523,-0.976532,-0.818947,'\'(-inf-6.266667]\''
-1.073183,-1.080878,-1.075377,-1.097916,-1.011483,-1.113378,-1.169214,-1.158589,-1.168374,-1.035601,-1.234416,-1.122047,-1.046997,-0.963833,-1.224832,-1.116854,-1.256627,-1.197635,1.477126,-0.26108,2.079262,-1.365827,-1.290533,'\'(-inf-14.9]\'',-1.382435,-1.503855,-1.188465,-1.378861,-1.007809,-0.788609,-1.217973,0.357055,-0.49723,-1.152336,1.059651,1.060725,1.022303,-1.237554,-1.328975,-1.376986,-1.376825,-1.347503,-1.235768,-0.034277,0.090854,0.107979,0.52443,0.496739,1.058313,0.42973,-0.159677,0.168605,0.525546,1.676318,-0.517907,-0.075702,-1.221536,-1.570483,-1.042029,-1.113503,0.82181,-0.46017,-0.84217,-0.839282,-0.654434,-0.542561,-0.533275,-0.96047,-0.90224,-0.870593,0.792715,-0.695639,0.073678,-0.099068,0.291498,0.302143,0.350922,0.357848,0.276912,0.070316,-0.017931,-0.208092,-0.251422,-0.181117,-0.628465,-0.692886,-0.850781,-0.894581,1.784069,1.634706,1.01906,-0.624845,-1.284253,-1.240712,-1.28299,-1.178064,-1.019856,-1.192019,-1.233107,-1.495948,-1.264767,-1.073659,-1.355336,-1.568024,-1.163299,-1.232707,-1.259511,-1.245939,-1.285746,-1.414833,-1.335472,-1.186948,-1.197004,-1.19467,-1.221273,-0.916228,-0.976058,-0.818572,'\'(-inf-6.266667]\''
-1.069926,-1.0771,-1.077235,-1.107439,-1.013665,-1.108955,-1.166598,-1.160504,-1.180616,-1.024199,-1.267802,-1.11712,-1.040438,-0.961795,-1.228531,-1.116737,-1.233881,-1.161472,1.412819,-0.291412,2.062072,-1.357896,-1.281195,'\'(-inf-14.9]\'',-1.473086,-1.467991,-1.191795,-1.438425,-0.985853,-0.713326,-1.209641,0.408782,-0.507479,-1.126739,1.085867,1.096877,1.033201,-1.232549,-1.322116,-1.374198,-1.368758,-1.341895,-1.227369,0.031169,-0.050279,-0.018497,0.309359,0.778387,0.967405,0.005638,-0.288291,0.04451,0.843412,0.694521,-0.304098,-0.307574,-1.222924,-1.551478,-1.040474,-1.112617,0.991166,-0.459883,-0.841429,-0.837281,-0.653625,-0.542197,-0.53309,-0.958323,-0.901888,-0.869524,0.824492,-0.694782,0.058374,-0.087274,0.346987,0.375738,0.51494,0.5063,0.409945,0.219425,0.095698,-0.111125,-0.175831,0.137622,-0.432843,-0.611319,-0.819078,-0.884552,1.783588,1.632801,1.015922,-0.624845,-1.284253,-1.240712,-1.279989,-1.183379,-1.019856,-1.187947,-1.230757,-1.486338,-1.26755,-1.072523,-1.353647,-1.574138,-1.161511,-1.231528,-1.259511,-1.244701,-1.284586,-1.419724,-1.334773,-1.185401,-1.195778,-1.19467,-1.219905,-0.915823,-0.974793,-0.8171,'\'(-inf-6.266667]\''
-1.069194,-1.076855,-1.071118,-1.107414,-1.012051,-1.100458,-1.156763,-1.150731,-1.168952,-1.027451,-1.244443,-1.110517,-1.034239,-0.959609,-1.182632,-1.108967,-1.203592,-1.301936,1.443328,-0.209461,2.178774,-1.356022,-1.280307,'\'(-inf-14.9]\'',-1.436002,-1.484802,-1.198455,-1.407792,-1.008566,-0.750734,-1.203612,0.422084,-0.505283,-1.12162,1.094879,1.133029,1.002488,-1.227386,-1.319127,-1.367903,-1.362991,-1.334416,-1.213223,0.162061,-0.050279,0.044741,0.889003,1.608509,1.967397,0.628007,-0.729253,0.229332,1.081811,1.536062,-0.383655,-0.316493,-1.214992,-1.529006,-1.039477,-1.111403,0.991166,-0.459617,-0.841009,-0.83575,-0.653741,-0.541379,-0.53226,-0.957158,-0.901521,-0.86885,0.836119,-0.698287,0.178596,-0.193579,0.424672,0.481716,0.572829,0.577298,0.455297,0.261564,0.099141,-0.058912,-0.144907,-0.035028,-0.545702,-0.780728,-0.89305,-0.979828,1.800417,1.633563,1.021412,-0.626269,-1.282721,-1.237869,-1.276987,-1.180722,-1.019856,-1.168945,-1.229582,-1.476727,-1.264767,-1.071954,-1.351958,-1.574138,-1.159724,-1.22917,-1.258217,-1.243462,-1.282389,-1.41571,-1.332073,-1.183683,-1.193324,-1.191392,-1.217171,-0.916269,-0.975148,-0.817861,'\'(-inf-6.266667]\''
-1.065436,-1.072979,-1.066282,-1.10583,-1.010952,-1.091412,-1.151622,-1.145674,-1.15091,-1.028337,-1.211558,-1.11071,-1.020592,-0.950772,-1.158294,-1.098482,-1.208593,-1.158268,1.508756,-0.21159,2.213986,-1.340536,-1.263145,'\'(-inf-14.9]\'',-1.589833,-1.397385,-1.18791,-1.34993,-1.019922,-0.729692,-1.195406,0.476767,-0.50455,-1.095384,1.123552,1.154175,1.041127,-1.222696,-1.311388,-1.361607,-1.356969,-1.326938,-1.209907,-0.099723,-0.332544,-0.208211,0.721142,0.733917,2.896683,0.143331,-0.811933,0.324383,1.145384,1.945144,-0.343877,-0.414592,-1.206213,-1.492977,-1.037091,-1.109548,0.991166,-0.459494,-0.840571,-0.834102,-0.654261,-0.542107,-0.532998,-0.955738,-0.901113,-0.867795,0.857089,-0.698677,0.200298,-0.221365,0.51068,0.508211,0.566397,0.583753,0.476462,0.290738,0.150791,-0.032806,-0.151779,-0.353768,-0.711228,-0.881119,-1.019859,-1.145306,1.800577,1.632167,1.030039,-0.618199,-1.282721,-1.239291,-1.275486,-1.184708,-1.019856,-1.162159,-1.228406,-1.470321,-1.25781,-1.070249,-1.350269,-1.558852,-1.15883,-1.226812,-1.25563,-1.242223,-1.280954,-1.406838,-1.331597,-1.182423,-1.19087,-1.191392,-1.215804,-0.9164,-0.97513,-0.819439,'\'(-inf-6.266667]\''
-1.06179,-1.068318,-1.069645,-1.102082,-1.012177,-1.080261,-1.137071,-1.135463,-1.135384,-1.021017,-1.190881,-1.105955,-1.014575,-0.948065,-1.145882,-1.088497,-1.185394,-1.150338,1.567623,-0.195626,2.215747,-1.338662,-1.26183,'\'(-inf-14.9]\'',-1.368701,-1.501614,-1.190685,-1.365247,-1.016894,-0.762423,-1.188904,0.50534,-0.531637,-1.092824,1.146491,1.180096,1.05896,-1.218037,-1.304353,-1.355402,-1.349242,-1.320862,-1.208802,0.096615,-0.050279,0.044741,0.343456,1.712275,1.038111,-0.445992,-0.049436,0.173885,1.320209,1.278924,-0.433378,-0.352165,-1.21128,-1.535761,-1.035833,-1.107748,0.991166,-0.459351,-0.840151,-0.837869,-0.654376,-0.542561,-0.533551,-0.954573,-0.900739,-0.866973,0.843558,-0.70039,0.268332,-0.288408,0.56062,0.567088,0.534237,0.538572,0.455297,0.313428,0.188667,0.038055,-0.079624,-0.685788,-0.793992,-0.92504,-1.014575,-1.130263,1.783267,1.633436,1.030628,-0.60728,-1.279657,-1.236448,-1.272485,-1.179393,-1.013805,-1.162159,-1.22488,-1.463914,-1.249463,-1.069113,-1.345202,-1.543565,-1.156149,-1.223275,-1.253042,-1.238506,-1.278298,-1.395672,-1.328674,-1.180532,-1.188417,-1.181561,-1.214437,-0.916413,-0.975095,-0.820266,'\'(-inf-6.266667]\''
-1.059833,-1.065938,-1.066538,-1.097661,-1.01131,-1.085535,-1.149141,-1.145533,-1.168387,-1.055414,-1.2185,-1.100978,-1.010841,-0.947593,-1.123225,-1.09401,-1.180404,-1.172129,1.442848,-0.175404,2.186974,-1.332355,-1.256701,'\'(-inf-14.9]\'',-1.372821,-1.508338,-1.17237,-1.332912,-1.006294,-0.785803,-1.183633,0.506325,-0.538226,-1.085785,1.144853,1.176003,1.060942,-1.212843,-1.293098,-1.348837,-1.343078,-1.313384,-1.205266,0.292953,-0.191412,0.171217,0.246411,1.07486,0.70478,-0.335838,0.125112,0.181806,1.12949,1.103603,-0.458239,-0.04003,-1.193731,-1.468838,-1.030478,-1.106221,1.075852,-0.459208,-0.839932,-0.840871,-0.65403,-0.542288,-0.533367,-0.952677,-0.900402,-0.866087,0.854019,-0.698833,0.222901,-0.261594,0.732636,0.631852,0.563181,0.52889,0.43111,0.277772,0.143904,0.052973,-0.069316,-1.615445,-1.343239,-1.395623,-1.32103,-1.426119,1.802099,1.635722,1.033373,-0.609654,-1.276593,-1.233605,-1.273986,-1.174078,-1.010444,-1.15673,-1.22253,-1.454304,-1.249463,-1.067976,-1.343513,-1.540508,-1.154361,-1.222096,-1.250455,-1.236029,-1.275795,-1.391422,-1.324735,-1.1789,-1.185963,-1.177191,-1.211703,-0.915864,-0.974544,-0.820184,'\'(-inf-6.266667]\''
-1.056632,-1.062136,-1.061381,-1.098369,-1.009854,-1.090931,-1.156297,-1.155088,-1.184822,-1.07243,-1.232532,-1.104253,-1.013895,-0.955054,-1.101713,-1.099291,-1.189035,-1.134449,1.321629,-0.172211,2.261453,-1.337226,-1.26035,'\'(-inf-14.9]\'',-1.30552,-1.628257,-1.171815,-1.319297,-1.011594,-0.798896,-1.175553,0.547707,-0.533833,-1.056989,1.15878,1.19101,1.07283,-1.207429,-1.283777,-1.336966,-1.330664,-1.307775,-1.196645,0.096615,-0.050279,-0.018497,0.401158,1.030389,1.189625,-0.18713,-0.003502,-0.116549,1.12949,0.390631,-0.617352,-0.218393,-1.214111,-1.531573,-1.028419,-1.104284,1.160529,-0.459187,-0.839797,-0.842166,-0.653452,-0.541561,-0.532998,-0.951226,-0.900102,-0.86527,0.850374,-0.696262,0.146283,-0.201366,1.082217,0.723111,0.540669,0.535345,0.479485,0.355568,0.195553,0.015678,-0.076188,-3.076335,-2.110681,-2.092086,-2.039612,-2.067975,1.804744,1.635722,1.020432,-0.605856,-1.273529,-1.229341,-1.272485,-1.162119,-1.010444,-1.145872,-1.221354,-1.447897,-1.253637,-1.066839,-1.341824,-1.546622,-1.152574,-1.220917,-1.249161,-1.23479,-1.273506,-1.390477,-1.322035,-1.176895,-1.183509,-1.171729,-1.210336,-0.914985,-0.973815,-0.821827,'\'(-inf-6.266667]\''
-1.053835,-1.058431,-1.06436,-1.098956,-1.010821,-1.077034,-1.145392,-1.144278,-1.159604,-1.030192,-1.226983,-1.099368,-0.996635,-0.945879,-1.100407,-1.091351,-1.191552,-1.130399,1.356601,-0.24618,1.964959,-1.319397,-1.244963,'\'(-inf-14.9]\'',-1.284917,-1.469112,-1.18236,-1.348228,-1.013108,-0.748396,-1.165832,0.588103,-0.528709,-1.038431,1.18008,1.218977,1.083728,-1.200315,-1.271993,-1.322577,-1.32058,-1.299362,-1.180068,0.031169,-0.191412,-0.018497,0.256902,1.44545,0.492661,-0.231192,-0.049436,-0.061102,0.636799,0.764649,-0.686964,0.084824,-1.219619,-1.535806,-1.028259,-1.103043,1.160529,-0.459085,-0.839461,-0.84405,-0.653394,-0.542107,-0.533551,-0.95049,-0.899925,-0.864641,0.829479,-0.700515,0.299313,-0.323455,1.14603,0.982168,0.66931,0.728977,0.666941,0.423639,0.281636,0.086538,-0.014341,-2.558384,-2.125728,-2.079537,-2.060747,-2.093048,1.795929,1.64043,1.026314,-0.594463,-1.270465,-1.226498,-1.270984,-1.155475,-1.010444,-1.1418,-1.219004,-1.438287,-1.252245,-1.066271,-1.336757,-1.543565,-1.15168,-1.218559,-1.246574,-1.232312,-1.270728,-1.384709,-1.316667,-1.175549,-1.181056,-1.166267,-1.208969,-0.913832,-0.972758,-0.82267,'\'(-inf-6.266667]\''
-1.049335,-1.053206,-1.065353,-1.098667,-1.010732,-1.069447,-1.132747,-1.12622,-1.12098,-1.02998,-1.157869,-1.094393,-0.996025,-0.943232,-1.082873,-1.081796,-1.112208,-1.096231,1.410116,-0.257887,1.872278,-1.315307,-1.242365,'\'(-inf-14.9]\'',-1.2547,-1.45006,-1.177365,-1.394178,-0.985853,-0.670073,-1.162897,0.592537,-0.486981,-1.038431,1.180899,1.211473,1.096608,-1.197671,-1.267597,-1.314573,-1.315438,-1.291884,-1.184267,-0.034277,-0.191412,-0.081735,-0.16275,-0.214794,0.189632,-0.390915,0.042431,-0.248565,0.605013,0.554264,-0.726743,-0.298656,-1.21811,-1.530312,-1.027912,-1.101338,1.245207,-0.459003,-0.839292,-0.847523,-0.653279,-0.542288,-0.533644,-0.949852,-0.899692,-0.864192,0.7837,-0.703966,0.435102,-0.422493,1.065571,1.105809,0.849409,0.88711,0.836255,0.507918,0.333285,0.123833,0.033763,-1.429514,-1.711912,-1.803462,-1.854683,-1.877424,1.792804,1.649499,1.028079,-0.588766,-1.268933,-1.226498,-1.270984,-1.16079,-1.010444,-1.140443,-1.216653,-1.428677,-1.252245,-1.065135,-1.335068,-1.540508,-1.149893,-1.21738,-1.243987,-1.231074,-1.268195,-1.380762,-1.313522,-1.173573,-1.178602,-1.166267,-1.204867,-0.913358,-0.972021,-0.823277,'\'(-inf-6.266667]\''
-1.044181,-1.047196,-1.058307,-1.087535,-1.008944,-1.066127,-1.136972,-1.13194,-1.125004,-1.016372,-1.177922,-1.096345,-0.982661,-0.931618,-1.082497,-1.079961,-1.1064,-1.08902,1.373295,-0.295669,1.815798,-1.306596,-1.232798,'\'(-inf-14.9]\'',-1.322002,-1.395143,-1.179585,-1.353334,-1.007051,-0.71847,-1.154091,0.652146,-0.445985,-1.04483,1.232102,1.291964,1.103543,-1.192697,-1.26021,-1.307649,-1.308819,-1.283471,-1.176973,0.096615,-0.332544,-0.081735,-0.188978,0.289209,1.098717,-0.732391,-0.600639,-0.145593,0.430187,0.495823,-0.433378,-0.334329,-1.210938,-1.518107,-1.027544,-1.099797,1.160529,-0.459003,-0.839191,-0.849053,-0.653221,-0.542379,-0.533644,-0.949542,-0.899494,-0.863757,0.744468,-0.704378,0.457665,-0.442122,1.226489,1.011606,0.842977,0.870974,0.818114,0.514401,0.322955,0.082809,0.040635,-2.279486,-2.133252,-2.186203,-2.219258,-2.158236,1.788156,1.649372,1.018079,-0.601109,-1.267401,-1.225077,-1.267983,-1.156804,-1.010444,-1.124156,-1.215478,-1.428677,-1.250854,-1.064566,-1.33169,-1.53745,-1.148105,-1.215022,-1.242693,-1.228596,-1.266608,-1.37668,-1.311997,-1.172198,-1.176148,-1.161898,-1.202133,-0.913338,-0.971362,-0.823988,'\'(-inf-6.266667]\''
-1.042033,-1.044595,-1.057346,-1.082529,-1.00682,-1.066453,-1.139965,-1.135154,-1.142021,-1.029244,-1.196535,-1.09146,-0.979211,-0.929908,-1.067963,-1.081771,-1.136572,-1.086459,1.294498,-0.179129,1.79977,-1.300851,-1.232798,'\'(-inf-14.9]\'',-1.245086,-1.285311,-1.169595,-1.34993,-0.994938,-0.735537,-1.157058,0.591552,-0.418166,-1.030752,1.171888,1.212156,1.073821,-1.191784,-1.257396,-1.302882,-1.307115,-1.282069,-1.175647,0.031169,-0.191412,-0.081735,0.201823,-0.36303,1.169423,-0.104515,0.042431,-0.288169,0.44608,0.343878,-0.686964,-0.254066,-1.198171,-1.483565,-1.02539,-1.098038,1.160529,-0.458921,-0.838855,-0.850878,-0.653221,-0.542379,-0.533551,-0.94891,-0.899346,-0.863251,0.726979,-0.704121,0.453632,-0.438544,1.215391,1.055764,0.878353,0.912927,0.902772,0.689442,0.48479,0.14621,0.105918,-1.8545,-1.696864,-1.866206,-2.1083,-2.042903,1.782706,1.636866,1.01553,-0.60016,-1.26587,-1.223655,-1.267983,-1.156804,-1.010444,-1.101082,-1.213127,-1.415863,-1.252245,-1.062861,-1.330001,-1.53745,-1.145424,-1.212664,-1.240106,-1.226118,-1.264196,-1.375972,-1.308566,-1.170337,-1.171241,-1.156436,-1.199399,-0.913633,-0.971192,-0.823982,'\'(-inf-6.266667]\''
-1.040482,-1.043172,-1.053342,-1.070474,-1.005106,-1.066031,-1.138855,-1.135158,-1.141074,-1.022226,-1.201394,-1.09003,-0.979472,-0.931443,-1.073453,-1.080426,-1.123924,-1.052566,1.252699,-0.21159,1.730547,-1.294481,-1.226386,'\'(-inf-14.9]\'',-1.078893,-1.408592,-1.17903,-1.358439,-1.004023,-0.714495,-1.150525,0.58564,-0.408649,-1.033312,1.16902,1.208745,1.07184,-1.184891,-1.248427,-1.29344,-1.296547,-1.277395,-1.164374,-0.034277,-0.332544,-0.144973,-0.128653,0.126149,0.250238,-0.429469,-0.040249,-0.412264,0.430187,0.378943,-0.900773,-0.307574,-1.206851,-1.536526,-1.025676,-1.096442,0.991166,-0.458757,-0.838636,-0.853762,-0.652874,-0.542016,-0.533275,-0.948268,-0.899197,-0.86276,0.720029,-0.703335,0.425761,-0.426134,1.173774,1.079315,0.849409,0.903246,0.848349,0.669993,0.464131,0.217071,0.164329,-1.894343,-1.629149,-1.809736,-1.928654,-1.882438,1.788076,1.636485,1.027687,-0.602059,-1.262806,-1.219391,-1.264981,-1.151489,-1.010444,-1.095653,-1.210777,-1.409457,-1.248071,-1.063998,-1.326623,-1.525221,-1.14453,-1.211485,-1.238812,-1.223641,-1.262212,-1.366021,-1.307931,-1.168389,-1.170014,-1.153159,-1.198032,-0.912912,-0.970791,-0.824567,'\'(-inf-6.266667]\''
-1.039678,-1.042142,-1.054239,-1.08507,-1.005238,-1.079676,-1.156979,-1.154983,-1.16045,-1.07587,-1.18605,-1.101479,-0.98643,-0.941806,-1.074095,-1.094233,-1.115389,-0.986363,1.036698,-0.258951,1.88615,-1.29751,-1.22323,'\'(-inf-14.9]\'',-1.400291,-1.369366,-1.16904,-1.344824,-0.996452,-0.687608,-1.151629,0.518641,-0.422558,-1.026273,1.109216,1.098241,1.087691,-1.181711,-1.240161,-1.282828,-1.290582,-1.272254,-1.160396,-0.034277,-0.332544,-0.144973,-0.527322,-0.111029,-0.194203,-0.803991,-0.251544,-0.478272,0.112322,0.226998,-0.756576,-0.494856,-1.214232,-1.527024,-1.026116,-1.095542,1.245207,-0.458614,-0.8383,-0.855528,-0.652181,-0.541743,-0.532998,-0.947219,-0.89907,-0.86238,0.704648,-0.702797,0.408028,-0.418295,1.132158,1.049876,0.926594,1.009743,0.923936,0.676476,0.477904,0.22453,0.174637,-1.36311,-1.501242,-1.690522,-1.838832,-1.792177,1.804584,1.631407,1.039647,-0.611553,-1.25821,-1.215127,-1.261979,-1.146174,-1.010444,-1.090224,-1.208426,-1.399847,-1.24668,-1.062861,-1.323245,-1.522164,-1.142743,-1.209127,-1.236225,-1.221163,-1.259679,-1.361973,-1.303928,-1.166757,-1.167561,-1.149882,-1.196665,-0.912884,-0.970399,-0.8237,'\'(-inf-6.266667]\''
-1.037925,-1.040425,-1.054944,-1.086987,-1.003787,-1.083525,-1.157587,-1.15725,-1.15748,-1.083221,-1.17378,-1.103292,-0.994147,-0.952507,-1.0605,-1.101261,-1.098363,-1.042487,0.9001,-0.32813,1.717988,-1.290422,-1.216687,'\'(-inf-14.9]\'',-1.393423,-1.37497,-1.157385,-1.28526,-1.007051,-0.618638,-1.146737,0.540317,-0.418166,-1.010915,1.116589,1.111884,1.08571,-1.178217,-1.235237,-1.271676,-1.285554,-1.266178,-1.153986,0.031169,-0.473677,-0.081735,-0.270285,0.022384,0.048219,-0.479038,-0.20561,-0.573323,0.207681,0.168557,-0.920662,-0.530528,-1.217846,-1.556162,-1.027043,-1.093974,1.245207,-0.458552,-0.837879,-0.856529,-0.651488,-0.541379,-0.532629,-0.945472,-0.898978,-0.861968,0.681301,-0.70677,0.572427,-0.522873,1.165451,1.161742,1.113124,1.100105,1.008593,0.81586,0.653512,0.362521,0.312076,-1.150617,-1.268,-1.445819,-1.706739,-1.651771,1.791922,1.631153,1.041607,-0.619623,-1.256678,-1.215127,-1.260479,-1.147502,-1.010444,-1.073937,-1.206076,-1.396643,-1.243898,-1.062293,-1.319867,-1.519107,-1.140955,-1.206769,-1.232344,-1.218685,-1.256993,-1.362377,-1.299576,-1.164838,-1.165107,-1.143327,-1.195298,-0.913015,-0.969605,-0.823293,'\'(-inf-6.266667]\''
-1.036424,-1.038781,-1.0503,-1.100067,-1.003298,-1.11001,-1.180479,-1.179059,-1.194583,-1.148549,-1.1795,-1.110073,-1.024205,-0.977902,-1.081069,-1.129771,-1.082078,-1.013452,0.52261,-0.409548,1.219035,-1.279275,-1.215372,'\'(-inf-14.9]\'',-1.098122,-1.318933,-1.147395,-1.273347,-0.998723,-0.491218,-1.148789,0.46248,-0.452573,-1.069787,1.091602,1.062089,1.097599,-1.17529,-1.231895,-1.265471,-1.285383,-1.260102,-1.149786,-0.165169,-0.61481,-0.208211,-0.905009,-0.348206,-0.335616,-0.919653,-1.115095,-0.818872,-0.332689,-0.474286,-0.930606,-0.548365,-1.230525,-1.520134,-1.028624,-1.093769,1.414563,-0.458081,-0.837593,-0.858707,-0.651719,-0.540651,-0.531706,-0.945843,-0.898682,-0.861453,0.674463,-0.707393,0.602628,-0.535097,1.168226,1.144079,1.129204,1.061379,0.987429,0.883931,0.701718,0.433381,0.384231,-1.256863,-1.117521,-1.364251,-1.611633,-1.551481,1.795929,1.631787,1.047686,-0.625794,-1.253614,-1.212284,-1.255976,-1.147502,-1.010444,-1.046792,-1.203725,-1.390236,-1.238332,-1.061156,-1.316489,-1.516049,-1.138274,-1.204411,-1.23105,-1.216208,-1.254886,-1.362985,-1.296622,-1.16312,-1.166334,-1.14005,-1.193931,-0.913832,-0.97029,-0.824215,'\'(-inf-6.266667]\''
-1.034371,-1.037064,-1.046873,-1.099156,-1.002551,-1.110935,-1.17655,-1.171858,-1.173108,-1.131355,-1.157147,-1.108038,-1.031389,-0.987341,-1.072365,-1.128777,-1.091873,-1.017673,0.487869,-0.428705,0.959963,-1.273968,-1.218068,'\'(-inf-14.9]\'',-0.892097,-1.190048,-1.125749,-1.237609,-0.985095,-0.437445,-1.144717,0.472825,-0.462822,-1.013474,1.065796,1.029347,1.082738,-1.17189,-1.228202,-1.262323,-1.28081,-1.254493,-1.144923,-0.165169,-0.755943,-0.334687,-0.327987,0.971094,-0.426525,-0.61673,-0.334224,-0.671015,0.334827,-0.193773,-0.96044,-0.584037,-1.23253,-1.539589,-1.030475,-1.092433,1.414563,-0.458327,-0.838148,-0.868655,-0.652412,-0.541561,-0.532721,-0.946588,-0.898512,-0.861196,0.642165,-0.709846,0.717096,-0.596967,1.168226,1.076371,0.891217,0.880655,0.833232,0.770479,0.512337,0.44084,0.356743,-1.934185,-1.380859,-1.709345,-1.601065,-1.591597,1.783908,1.631533,1.056117,-0.624845,-1.255146,-1.213705,-1.255976,-1.146174,-1.010444,-1.050863,-1.201374,-1.380626,-1.236941,-1.06002,-1.313111,-1.509935,-1.136486,-1.202053,-1.228463,-1.21373,-1.252536,-1.359544,-1.293445,-1.161373,-1.162653,-1.137865,-1.192564,-0.914422,-0.970595,-0.825299,'\'(-inf-6.266667]\''
-1.03111,-1.03336,-1.050876,-1.11114,-1.004055,-1.112756,-1.177335,-1.175588,-1.175742,-1.119991,-1.172689,-1.107065,-1.034374,-0.987593,-1.103542,-1.132426,-1.088483,-0.978734,0.400467,-0.52662,0.668625,-1.263133,-1.212643,'\'(-inf-14.9]\'',-0.85364,-1.094786,-1.090229,-1.162728,-0.969953,-0.391854,-1.140109,0.468392,-0.469411,-1.017314,1.065386,1.042307,1.062923,-1.167011,-1.223453,-1.259176,-1.274077,-1.247482,-1.126135,-0.230615,-0.897076,-0.397925,-0.291268,1.193448,0.068421,-0.677314,-0.683319,-0.634051,0.096429,0.016612,-0.91569,-0.566201,-1.239922,-1.569267,-1.032971,-1.091464,1.583918,-0.458183,-0.83798,-0.871833,-0.652354,-0.541925,-0.532905,-0.946938,-0.89841,-0.861211,0.593029,-0.708686,0.666798,-0.564941,0.829742,1.011606,0.730415,0.674114,0.645776,0.572748,0.453801,0.407275,0.305204,-1.137336,-0.921899,-1.050529,-1.004008,-1.055045,1.792082,1.629885,1.058273,-0.626744,-1.253614,-1.212284,-1.257477,-1.140859,-1.010444,-1.035934,-1.199024,-1.380626,-1.238332,-1.058883,-1.313111,-1.506877,-1.132911,-1.199695,-1.227169,-1.211252,-1.251071,-1.355799,-1.293604,-1.159511,-1.1602,-1.133496,-1.189829,-0.914855,-0.971116,-0.824334,'\'(-inf-6.266667]\''
-1.02272,-1.039149,-1.050268,-1.116263,-1.002168,-1.116357,-1.17684,-1.175939,-1.166853,-1.120547,-1.156334,-1.107287,-1.04314,-0.998912,-1.083799,-1.136962,-1.069643,-0.998179,0.303587,-0.575045,0.488609,-1.255983,-1.21044,'\'(-inf-14.9]\'',-0.632507,-1.125046,-1.052489,-1.082742,-0.954054,-0.125325,-1.14336,0.376761,-0.489909,-1.035232,1.002714,0.95636,1.036173,-1.164398,-1.227498,-1.258546,-1.279219,-1.24421,-1.10359,-0.361507,-1.038209,-0.587639,-0.435523,0.615328,-0.083093,-0.605715,-0.811933,-0.391142,0.160002,-0.252213,-0.637242,-0.075702,-1.246344,-1.584579,-1.036092,-1.08961,1.753282,-0.457979,-0.837795,-0.874835,-0.651777,-0.541379,-0.53226,-0.946611,-0.898341,-0.86124,0.477445,-0.710789,0.768787,-0.619415,0.924074,0.932123,0.691823,0.680569,0.672988,0.666751,0.563986,0.403545,0.329255,-1.469356,-0.959518,-1.063078,-1.188937,-1.190437,1.785832,1.634578,1.058862,-0.626269,-1.253614,-1.212284,-1.254476,-1.142187,-1.010444,-1.010145,-1.196673,-1.37422,-1.231376,-1.057178,-1.309734,-1.500763,-1.131124,-1.196158,-1.224582,-1.208775,-1.248049,-1.353809,-1.288649,-1.157506,-1.157746,-1.126941,-1.189829,-0.91456,-0.971025,-0.823067,'\'(-inf-6.266667]\''
-1.027595,-1.037089,-1.044887,-1.10531,-0.999865,-1.117986,-1.176396,-1.175192,-1.154896,-1.119356,-1.136078,-1.107777,-1.047309,-1.002295,-1.098293,-1.139926,-1.040471,-1.0341,0.225038,-0.678282,0.26964,-1.263601,-1.222474,'\'(-inf-14.9]\'',-0.673712,-0.973746,-1.058594,-1.150815,-0.932098,-0.194763,-1.15043,0.27035,-0.497962,-1.057629,0.929801,0.875188,0.97772,-1.16465,-1.226267,-1.256478,-1.277515,-1.241406,-1.111768,-0.426954,-1.038209,-0.587639,-0.36733,0.259561,-0.153799,-0.385407,-0.664946,-0.116549,0.461973,0.028301,-0.32896,-0.084621,-1.237025,-1.572149,-1.038672,-1.089678,1.583918,-0.457876,-0.837273,-0.872422,-0.651603,-0.541561,-0.532629,-0.946197,-0.898314,-0.861189,0.500079,-0.718492,1.193986,-0.807556,0.882457,0.982168,0.797952,0.816111,0.881607,0.819101,0.743038,0.507971,0.425462,-0.340487,-0.48551,-0.636416,-0.956455,-0.969799,1.792483,1.642725,1.054156,-0.625794,-1.253614,-1.213705,-1.252975,-1.148831,-1.010444,-1.016932,-1.195498,-1.371016,-1.229985,-1.056042,-1.308045,-1.491591,-1.129336,-1.194979,-1.223288,-1.207536,-1.246157,-1.349862,-1.287092,-1.155731,-1.156519,-1.129126,-1.185728,-0.914491,-0.971063,-0.823209,'\'(-inf-6.266667]\''
-1.024949,-1.033924,-1.042229,-1.101227,-0.998824,-1.122501,-1.17983,-1.178163,-1.149347,-1.095912,-1.148121,-1.110704,-1.05296,-1.00294,-1.117832,-1.143746,-1.064521,-1.016194,0.137404,-0.708614,0.147306,-1.26357,-1.227439,'\'(-inf-14.9]\'',-0.686073,-0.91883,-1.021963,-1.026581,-0.937398,-0.259758,-1.153428,0.22355,-0.475268,-1.056349,0.889249,0.806294,0.979701,-1.16465,-1.224333,-1.260165,-1.277373,-1.240004,-1.111989,-0.426954,-1.179342,-0.587639,-0.118162,0.289209,0.320945,-0.302792,-0.380158,-0.132391,0.732159,0.484135,-0.498017,-0.334329,-1.231263,-1.586155,-1.040208,-1.088191,1.583918,-0.457794,-0.836651,-0.87148,-0.65143,-0.541834,-0.532813,-0.945178,-0.898382,-0.860719,0.487925,-0.718858,1.220644,-0.811417,0.788125,0.97628,0.746495,0.764476,0.821138,0.780203,0.718935,0.645962,0.518233,-0.154556,-0.319984,-0.467006,-0.581312,-0.663914,1.79665,1.64247,1.042392,-0.788622,-1.252082,-1.212284,-1.251474,-1.148831,-1.010444,-1.02779,-1.193147,-1.364609,-1.227202,-1.054905,-1.306356,-1.485476,-1.127549,-1.192621,-1.221994,-1.205058,-1.2446,-1.346995,-1.286457,-1.154041,-1.152839,-1.122572,-1.182994,-0.914127,-0.970492,-0.823036,'\'(-inf-6.266667]\''
-1.020187,-1.028748,-1.042421,-1.100135,-0.997446,-1.119085,-1.178555,-1.17965,-1.144023,-1.093716,-1.140574,-1.111947,-1.046681,-1.002219,-1.069618,-1.139823,-1.037066,-1.062579,0.137138,-0.761296,0.026885,-1.25055,-1.217148,'\'(-inf-14.9]\'',-0.642121,-0.875121,-1.019188,-1.03509,-0.929827,-0.306518,-1.152671,0.200888,-0.476732,-1.050589,0.867539,0.759909,0.994562,-1.162446,-1.217826,-1.244247,-1.274759,-1.237199,-1.105358,-0.361507,-1.038209,-0.461163,0.228051,1.060036,0.442156,-0.038423,-0.187237,-0.12711,0.875198,0.612704,-0.567629,-0.370002,-1.234822,-1.564899,-1.042311,-1.086446,1.583918,-0.457712,-0.835994,-0.86789,-0.650794,-0.541379,-0.532721,-0.944137,-0.898267,-0.860232,0.450285,-0.718757,1.218165,-0.802252,0.677147,0.999831,0.672526,0.651524,0.685082,0.695925,0.588089,0.631044,0.569773,-0.23424,-0.222172,-0.460732,-0.396383,-0.393131,1.787194,1.647323,1.028471,-0.819004,-1.252082,-1.212284,-1.248472,-1.147502,-1.011789,-1.038648,-1.191972,-1.361406,-1.22442,-1.053768,-1.304667,-1.482419,-1.125761,-1.190263,-1.219407,-1.203819,-1.242402,-1.339978,-1.284011,-1.152409,-1.150385,-1.116017,-1.181627,-0.915926,-0.971388,-0.822171,'\'(-inf-6.266667]\''
-1.018013,-1.02681,-1.03909,-1.100608,-0.997499,-1.121572,-1.194209,-1.196312,-1.181895,-1.1313,-1.173445,-1.113261,-1.031494,-0.991448,-1.111526,-1.148435,-1.023449,-1.017936,-0.003354,-0.776728,-0.029912,-1.251206,-1.220501,'\'(-inf-14.9]\'',-0.573446,-0.853827,-0.995323,-0.990843,-0.916956,-0.311662,-1.156332,0.156551,-0.438664,-1.04803,0.827396,0.72171,0.952951,-1.163265,-1.219584,-1.255848,-1.275441,-1.23533,-1.102264,-0.426954,-1.179342,-0.587639,-0.081442,0.21509,0.048219,-0.115531,-0.279104,0.057712,0.795732,0.63608,-0.403544,-0.013275,-1.23676,-1.567646,-1.044681,-1.085,1.668596,-0.457323,-0.835018,-0.861473,-0.650679,-0.541106,-0.532075,-0.943069,-0.898147,-0.86004,0.424111,-0.717043,1.117749,-0.741395,0.513454,0.885022,0.659662,0.664433,0.6488,0.689442,0.612192,0.51543,0.583517,0.403239,0.214216,-0.040345,-0.243156,-0.072203,1.785351,1.635975,1.022785,-0.869799,-1.252082,-1.212284,-1.248472,-1.152818,-1.011789,-1.050863,-1.190797,-1.354999,-1.225811,-1.052632,-1.302978,-1.476304,-1.123974,-1.189084,-1.219407,-1.202581,-1.240815,-1.333535,-1.283375,-1.150862,-1.146704,-1.108371,-1.18026,-0.914807,-0.970759,-0.820308,'\'(-inf-6.266667]\''
-1.018616,-1.029533,-1.035183,-1.102387,-0.996984,-1.131169,-1.204088,-1.209513,-1.190219,-1.163154,-1.15845,-1.123429,-1.040257,-1.004548,-1.082615,-1.159026,-1.005792,-0.960208,-0.165057,-0.791096,-0.132159,-1.248895,-1.224644,'\'(-inf-14.9]\'',-0.500651,-0.741753,-0.949258,-0.900645,-0.894243,-0.156887,-1.156111,0.098912,-0.431343,-1.067867,0.791759,0.679419,0.928183,-1.159362,-1.218353,-1.25342,-1.270129,-1.230656,-1.095632,-0.623292,-1.461608,-0.714115,0.272639,0.882153,0.007816,0.132315,0.180232,0.142202,0.58912,0.355567,-0.224542,0.281024,-1.235527,-1.574716,-1.046381,-1.084154,1.753282,-0.456934,-0.833958,-0.856647,-0.65039,-0.540742,-0.531429,-0.941847,-0.897994,-0.859559,0.426965,-0.713414,0.918741,-0.636382,0.421897,0.714279,0.566397,0.635388,0.573213,0.59868,0.563986,0.500512,0.566337,0.496205,0.244312,0.072595,-0.095212,0.063189,1.789518,1.633436,1.018079,-0.896383,-1.245954,-1.206598,-1.246972,-1.142187,-1.011789,-1.05765,-1.188446,-1.345389,-1.223028,-1.051495,-1.2996,-1.47019,-1.122186,-1.186726,-1.21682,-1.200103,-1.238098,-1.325203,-1.279945,-1.148972,-1.144251,-1.109463,-1.176158,-0.914347,-0.970545,-0.818742,'\'(-inf-6.266667]\''
-1.021579,-1.035151,-1.040019,-1.113023,-0.995612,-1.158826,-1.226675,-1.234547,-1.217035,-1.232866,-1.141311,-1.138687,-1.073565,-1.037671,-1.072269,-1.186908,-0.976878,-0.988654,-0.518011,-0.892204,-0.305091,-1.238841,-1.218496,'\'(-inf-14.9]\'',-0.293253,-0.717097,-0.958693,-0.892136,-0.910899,-0.086281,-1.169462,-0.152827,-0.427683,-1.062748,0.579166,0.347908,0.895488,-1.156591,-1.217122,-1.25342,-1.265356,-1.226917,-1.084139,-0.688738,-1.461608,-0.777353,0.393289,1.07486,0.48256,-0.010885,0.299659,0.506565,1.240743,0.764649,-0.125096,0.655586,-1.259487,-1.58557,-1.049653,-1.0838,1.83796,-0.456709,-0.833083,-0.853527,-0.65039,-0.540924,-0.531429,-0.941544,-0.89781,-0.859454,0.422603,-0.712019,0.82947,-0.58698,0.396927,0.575919,0.49886,0.554708,0.482509,0.543574,0.543326,0.478135,0.545721,0.217307,0.18412,0.091419,-0.079361,0.078233,1.808831,1.631787,1.022197,-0.869799,-1.245954,-1.20802,-1.24397,-1.142187,-1.011789,-1.067151,-1.186095,-1.338982,-1.217463,-1.050927,-1.296222,-1.461018,-1.120399,-1.183189,-1.214232,-1.197625,-1.235076,-1.309585,-1.276895,-1.146881,-1.145478,-1.105093,-1.18026,-0.914333,-0.970501,-0.816879,'\'(-inf-6.266667]\''
-1.022445,-1.035543,-1.045239,-1.130005,-0.999323,-1.167031,-1.235224,-1.243239,-1.231405,-1.229294,-1.170318,-1.141191,-1.080919,-1.046432,-1.085283,-1.194362,-1.046548,-0.950519,-0.642377,-0.895397,-0.409557,-1.230349,-1.219646,'\'(-inf-14.9]\'',-0.359181,-0.444758,-0.903192,-0.846187,-0.855631,-0.125325,-1.172997,-0.217856,-0.42329,-1.051869,0.518132,0.261279,0.873692,-1.155962,-1.221871,-1.256388,-1.273594,-1.221308,-1.07596,-0.623292,-1.602741,-0.777353,0.569019,1.148978,0.735083,0.451761,-0.141303,0.342865,1.495035,0.858154,-0.149957,-0.066784,-1.254926,-1.568862,-1.050729,-1.082722,2.176671,-0.456545,-0.832292,-0.851231,-0.649928,-0.540833,-0.531337,-0.941049,-0.897655,-0.859809,0.377902,-0.71209,0.815646,-0.574892,0.23046,0.414008,0.29625,0.299759,0.204349,0.332877,0.374605,0.485594,0.562901,-0.207679,0.1465,0.160437,0.248228,0.404175,1.799054,1.630773,1.027883,-0.87597,-1.242891,-1.205177,-1.242469,-1.147502,-1.011789,-1.090224,-1.183745,-1.329372,-1.211898,-1.04979,-1.294533,-1.451846,-1.118611,-1.180831,-1.211645,-1.195148,-1.232665,-1.292077,-1.276292,-1.144733,-1.144251,-1.100724,-1.18026,-0.914635,-0.970724,-0.814894,'\'(-inf-6.266667]\''
-1.019526,-1.033041,-1.037905,-1.098436,-0.994518,-1.136106,-1.202516,-1.205327,-1.139272,-1.101471,-1.123856,-1.135466,-1.053283,-1.01624,-1.094743,-1.162423,-1.030042,-0.905887,-0.330635,-0.893268,-0.46005,-1.226539,-1.221488,'\'(-inf-14.9]\'',-0.316603,-0.587091,-0.774986,-0.539856,-0.817018,-0.215337,-1.160909,-0.05627,-0.429147,-1.023073,0.634874,0.460458,0.866757,-1.154231,-1.222398,-1.257377,-1.260158,-1.216167,-1.072645,-0.557846,-1.743873,-0.777353,1.214233,1.045212,1.048212,1.211822,0.630381,1.042549,2.273805,1.091915,0.372133,0.744768,-1.223067,-1.541751,-1.049744,-1.082395,1.753282,-0.456401,-0.831384,-0.847876,-0.649061,-0.540378,-0.530783,-0.939585,-0.897322,-0.859166,0.361111,-0.707595,0.588766,-0.438596,0.036248,0.24621,0.164392,0.128717,0.050152,0.164319,0.219657,0.332685,0.473566,0.044657,0.281931,0.317298,0.401455,0.624813,1.794326,1.630393,1.028471,-0.889263,-1.242891,-1.206598,-1.242469,-1.155475,-1.003385,-1.11194,-1.181394,-1.322966,-1.206333,-1.048085,-1.291155,-1.442674,-1.116824,-1.178473,-1.209058,-1.19267,-1.229948,-1.278685,-1.274417,-1.142471,-1.138117,-1.101816,-1.172057,-0.915555,-0.970384,-0.81206,'\'(-inf-6.266667]\''
-1.012167,-1.023547,-1.027016,-1.088381,-0.990475,-1.125506,-1.197192,-1.19998,-1.105947,-1.052694,-1.109286,-1.145403,-1.035848,-1.001789,-1.09393,-1.151888,-1.018333,-0.897406,-0.253171,-0.944354,-0.489857,-1.220919,-1.21261,'\'(-inf-14.9]\'',-0.408627,-0.542262,-0.768881,-0.601122,-0.781434,-0.249004,-1.158605,-0.095189,-0.473071,-1.051869,0.622995,0.44818,0.855859,-1.149446,-1.212901,-1.267449,-1.248,-1.210558,-1.065351,-0.426954,-1.320475,-0.524401,1.04375,0.971094,0.745184,0.71613,1.181584,0.71515,1.479142,1.278924,0.203075,0.245351,-1.213285,-1.549812,-1.047438,-1.081263,1.583918,-0.456176,-0.830307,-0.840754,-0.648946,-0.539287,-0.529676,-0.93935,-0.897101,-0.858792,0.305431,-0.704916,0.466771,-0.338074,-0.17461,0.063692,0.026102,-0.006826,-0.079858,0.144871,0.168007,0.228259,0.342999,0.482924,0.808607,0.700039,0.655073,0.815365,1.788316,1.633893,1.058273,-0.916321,-1.241359,-1.205177,-1.240969,-1.151489,-1.003385,-1.122798,-1.180219,-1.319762,-1.202159,-1.047517,-1.291155,-1.439617,-1.115036,-1.176115,-1.207764,-1.19267,-1.228636,-1.265596,-1.275751,-1.140867,-1.133209,-1.094169,-1.166589,-0.915795,-0.971002,-0.810085,'\'(-inf-6.266667]\''
-1.010451,-1.022517,-1.02551,-1.082594,-0.988709,-1.128152,-1.195924,-1.201862,-1.107217,-1.023824,-1.138425,-1.142929,-1.043355,-1.005396,-1.093297,-1.151292,-1.012065,-0.877956,-0.281831,-0.909765,-0.427128,-1.228631,-1.218002,'\'(-inf-14.9]\'',-0.57894,-0.534417,-0.793856,-0.708338,-0.767807,-0.318208,-1.160435,-0.1346,-0.507479,-1.058268,0.596779,0.414756,0.840998,-1.148753,-1.20956,-1.2661,-1.248767,-1.206819,-1.065572,-0.557846,-1.320475,-0.650877,0.815564,0.971094,0.462358,0.545392,0.924356,0.569932,0.49376,0.601016,0.188158,0.851786,-1.20716,-1.530627,-1.04498,-1.079995,1.49924,-0.455787,-0.828944,-0.828804,-0.649292,-0.539742,-0.530137,-0.938921,-0.896857,-0.858142,0.31023,-0.702096,0.348198,-0.239087,-0.291137,-0.124713,-0.211885,-0.229503,-0.285454,0.037901,0.123244,0.123833,0.222741,0.137622,0.876322,0.881998,0.729044,0.850466,1.782546,1.629188,1.081802,-0.936734,-1.238295,-1.202334,-1.239468,-1.136872,-1.003385,-1.135014,-1.180219,-1.313355,-1.199376,-1.04638,-1.289466,-1.436559,-1.114142,-1.176115,-1.20647,-1.191431,-1.226835,-1.257736,-1.275148,-1.139063,-1.130756,-1.0898,-1.162487,-0.91539,-0.971245,-0.809222,'\'(-inf-6.266667]\''
-1.007739,-1.019794,-1.025094,-1.078271,-0.988467,-1.129655,-1.200171,-1.204362,-1.100759,-1.022309,-1.128097,-1.147411,-1.04095,-1.003439,-1.092751,-1.153904,-0.970897,-0.871686,-0.345605,-0.910297,-0.452773,-1.229506,-1.221685,'\'(-inf-14.9]\'',-0.625639,-0.529934,-0.777206,-0.665792,-0.764021,-0.272617,-1.158762,-0.14593,-0.519192,-1.032032,0.571383,0.382014,0.827127,-1.146361,-1.208504,-1.268798,-1.244477,-1.20308,-1.05872,-0.426954,-1.320475,-0.587639,1.258821,0.674622,1.512855,0.963976,1.007036,1.021426,1.622181,1.617878,0.32241,0.726931,-1.213648,-1.538733,-1.04534,-1.078154,1.49924,-0.4555,-0.827446,-0.818091,-0.649177,-0.539924,-0.530322,-0.938806,-0.896487,-0.857461,0.305573,-0.700157,0.268891,-0.165736,-0.293912,-0.20714,-0.314798,-0.319864,-0.345923,-0.143623,-0.017931,0.172317,0.246792,-0.114713,0.462506,0.63102,0.803016,0.890582,1.784309,1.628928,1.083566,-0.941956,-1.236763,-1.200913,-1.236466,-1.143516,-1.003385,-1.135014,-1.179044,-1.313355,-1.199376,-1.045244,-1.287777,-1.433502,-1.114142,-1.176115,-1.203883,-1.190192,-1.22479,-1.254599,-1.273051,-1.137287,-1.128302,-1.086523,-1.162487,-0.914882,-0.971444,-0.808078,'\'(-inf-6.266667]\''
-1.005435,-1.017046,-1.020258,-1.072578,-0.985218,-1.121883,-1.192871,-1.199381,-1.082182,-1.013867,-1.102424,-1.150051,-1.032609,-1.002667,-1.038218,-1.147327,-0.973443,-0.859996,-0.308553,-0.911893,-0.446277,-1.217922,-1.208566,'\'(-inf-14.9]\'',-0.540483,-0.59942,-0.748901,-0.5807,-0.763264,-0.301842,-1.153207,-0.115879,-0.516996,-0.992997,0.569335,0.375193,0.832081,-1.142741,-1.202349,-1.26655,-1.235586,-1.197004,-1.050541,-0.426954,-1.320475,-0.524401,1.458156,0.971094,1.805782,0.980499,1.227517,0.984462,1.27253,1.676318,0.302521,0.789358,-1.221822,-1.544408,-1.046779,-1.076667,1.49924,-0.455254,-0.826016,-0.807967,-0.648715,-0.539742,-0.529953,-0.938606,-0.896072,-0.856452,0.319569,-0.697508,0.17559,-0.074425,-0.169061,-0.095275,-0.160428,-0.148822,-0.161491,0.067075,0.026832,0.187235,0.243356,0.111061,0.620508,0.436513,0.591668,0.664929,1.783027,1.628774,1.081998,-0.935785,-1.235231,-1.19807,-1.236466,-1.135544,-1.003385,-1.117369,-1.177868,-1.310152,-1.199376,-1.044107,-1.284399,-1.430445,-1.113249,-1.174936,-1.202589,-1.188954,-1.222348,-1.247346,-1.269906,-1.135626,-1.124621,-1.082153,-1.159753,-0.913901,-0.971116,-0.80677,'\'(-inf-6.266667]\''
-1.002078,-1.012974,-1.020834,-1.06744,-0.986264,-1.114817,-1.191801,-1.199435,-1.080197,-0.993453,-1.117796,-1.153065,-1.017661,-0.990179,-1.027178,-1.138844,-0.960147,-0.979377,-0.250931,-0.8938,-0.437337,-1.21202,-1.203569,'\'(-inf-14.9]\'',-0.508892,-0.609506,-0.735581,-0.631755,-0.72238,-0.279865,-1.146548,-0.070064,-0.511871,-0.983398,0.600466,0.410663,0.855859,-1.139027,-1.196194,-1.255578,-1.229194,-1.191395,-1.045016,-0.426954,-1.179342,-0.461163,1.623394,1.48992,1.169423,1.288929,1.549052,1.583813,2.718816,2.02696,0.625719,1.155003,-1.225645,-1.552739,-1.050039,-1.07518,1.414563,-0.454845,-0.824619,-0.800668,-0.648252,-0.539378,-0.529768,-0.937479,-0.89565,-0.855838,0.298058,-0.698599,0.209183,-0.096568,-0.038662,0.048973,-0.070379,-0.042325,0.062246,0.271289,0.219657,0.29166,0.301768,0.456362,0.733368,0.486708,0.485994,0.50948,1.643188,1.627881,1.083566,-0.931038,-1.232167,-1.196649,-1.233465,-1.135544,-1.003385,-1.125513,-1.175518,-1.297339,-1.199376,-1.04297,-1.281021,-1.42433,-1.112355,-1.172578,-1.200002,-1.186476,-1.219753,-1.241983,-1.267079,-1.133507,-1.122168,-1.075599,-1.157019,-0.913125,-0.970803,-0.807706,'\'(-inf-6.266667]\''
-0.985728,-1.012532,-1.014301,-1.052921,-0.982942,-1.108951,-1.185913,-1.193435,-1.063205,-0.982888,-1.096973,-1.150887,-1.011891,-0.9944,-0.958016,-1.135656,-0.955249,-0.896214,-0.25118,-0.838989,-0.362701,-1.225415,-1.216128,'\'(-inf-14.9]\'',-0.576193,-0.564677,-0.738911,-0.698127,-0.697396,-0.259758,-1.146327,-0.107997,-0.51846,-0.977639,0.565238,0.375875,0.821183,-1.136382,-1.197425,-1.270057,-1.224507,-1.182048,-1.036616,-0.426954,-1.179342,-0.524401,1.563069,1.252743,1.371442,1.327483,1.236704,1.401631,1.940046,1.91008,0.60583,1.101494,-1.217427,-1.508019,-1.052948,-1.074485,1.245207,-0.454538,-0.823559,-0.796312,-0.647964,-0.53956,-0.530137,-0.936161,-0.895229,-0.855072,0.177283,-0.700063,0.256792,-0.13674,0.039023,0.143176,0.125799,0.154535,0.243654,0.352326,0.264419,0.332685,0.346435,0.881348,0.710796,0.392592,0.396171,0.434262,1.618827,1.627869,1.083762,-0.871223,-1.230635,-1.193806,-1.230463,-1.132886,-1.003385,-1.125513,-1.173167,-1.294135,-1.196594,-1.041834,-1.279332,-1.421273,-1.109674,-1.17022,-1.197415,-1.183998,-1.216976,-1.236451,-1.263553,-1.131416,-1.119714,-1.072322,-1.154285,-0.911971,-0.970325,-0.807023,'\'(-inf-6.266667]\''
-0.996814,-1.011257,-1.017792,-1.065265,-0.98239,-1.11303,-1.169431,-1.180459,-1.027509,-0.957704,-1.056164,-1.150173,-1.043024,-1.018027,-0.970401,-1.133498,-0.900419,-0.894312,-0.262647,-0.859211,-0.411191,-1.20562,-1.198111,'\'(-inf-14.9]\'',-0.534989,-0.628559,-0.69229,-0.599421,-0.677711,-0.275189,-1.144402,-0.109968,-0.655358,-0.960361,0.559913,0.359504,0.832081,-1.134336,-1.19338,-1.260705,-1.216127,-1.179243,-1.035953,-0.426954,-1.179342,-0.461163,1.71257,1.741922,1.442148,1.173268,1.650106,1.839923,2.575777,2.085401,0.97378,1.431466,-1.221327,-1.571204,-1.054785,-1.073489,1.414563,-0.454251,-0.822449,-0.789131,-0.647212,-0.539105,-0.530045,-0.935851,-0.894523,-0.85417,0.301285,-0.700624,0.273682,-0.14261,0.150001,0.252097,0.334842,0.36753,0.364593,0.456054,0.336729,0.332685,0.349871,0.881348,0.650604,0.273377,0.184824,0.238697,1.619468,1.627795,1.083174,-0.871223,-1.233699,-1.196649,-1.227462,-1.136872,-1.003385,-1.125513,-1.171992,-1.290932,-1.196594,-1.040697,-1.277643,-1.418215,-1.10878,-1.169041,-1.196121,-1.18276,-1.215083,-1.230716,-1.263013,-1.129354,-1.118487,-1.069044,-1.152918,-0.910605,-0.969309,-0.805561,'\'(-inf-6.266667]\''
-0.993811,-1.007454,-1.013148,-1.058607,-0.98138,-1.121157,-1.177954,-1.185117,-1.05432,-0.971142,-1.091755,-1.143475,-1.050432,-1.033334,-0.925629,-1.148573,-0.967141,-0.843305,-0.460602,-0.845907,-0.426007,-1.195222,-1.190417,'\'(-inf-14.9]\'',-0.360555,-0.607265,-0.68674,-0.553471,-0.690582,-0.125325,-1.142571,-0.107012,-0.527977,-0.960361,0.555408,0.357458,0.824155,-1.132699,-1.188983,-1.25351,-1.208287,-1.175504,-1.029322,-0.4924,-1.179342,-0.587639,1.909282,1.727098,1.88659,1.54779,1.319385,1.668303,2.54399,1.980208,0.725165,1.395793,-1.203414,-1.535806,-1.054103,-1.072057,1.329885,-0.454107,-0.821456,-0.783009,-0.64727,-0.539196,-0.530137,-0.93424,-0.894094,-0.853063,0.320802,-0.701995,0.320357,-0.175162,0.222137,0.249154,0.186904,0.235215,0.29203,0.358809,0.285079,0.314037,0.349871,0.230588,0.236788,0.0224,0.026313,0.113334,1.56818,1.611708,1.114741,-0.910625,-1.229103,-1.192385,-1.222959,-1.138201,-1.003385,-1.124156,-1.170816,-1.297339,-1.195202,-1.040129,-1.275954,-1.421273,-1.106992,-1.167862,-1.194827,-1.181521,-1.213252,-1.248932,-1.259582,-1.127321,-1.114807,-1.064675,-1.150184,-0.910276,-0.968604,-0.806035,'\'(-inf-6.266667]\''
-0.988619,-1.003038,-1.004981,-1.049007,-0.978242,-1.098526,-1.156979,-1.169987,-1.032977,-0.973411,-1.051143,-1.133215,-1.026482,-1.00929,-0.902129,-1.123112,-0.96727,-0.90526,-0.219799,-0.860807,-0.415011,-1.193411,-1.185486,'\'(-inf-14.9]\'',-0.41,-0.607265,-0.69895,-0.613035,-0.68074,-0.148705,-1.134965,-0.067601,-0.480392,-0.938604,0.571383,0.370418,0.84397,-1.127631,-1.180717,-1.23993,-1.201413,-1.169428,-1.023354,-0.557846,-1.320475,-0.650877,1.602411,1.11933,1.805782,1.305452,1.098903,1.64718,2.750603,1.991896,0.814666,1.039067,-1.202731,-1.514099,-1.052228,-1.070816,1.329885,-0.453923,-0.820278,-0.775357,-0.647097,-0.538923,-0.529491,-0.93301,-0.893558,-0.851838,0.340105,-0.700312,0.256746,-0.118119,0.216588,0.234434,0.106503,0.154535,0.174114,0.225908,0.133574,0.258095,0.29146,-0.274083,-0.06417,-0.247401,-0.047659,0.033102,1.528593,1.435822,1.182973,-0.910625,-1.229103,-1.193806,-1.222959,-1.13953,-1.003385,-1.122798,-1.169641,-1.290932,-1.197985,-1.038992,-1.275954,-1.42433,-1.106099,-1.166683,-1.194827,-1.181521,-1.212305,-1.26256,-1.258153,-1.125889,-1.11358,-1.061398,-1.150184,-0.909925,-0.968416,-0.805241,'\'(-inf-6.266667]\''
-0.986166,-0.998917,-1.002963,-1.048262,-0.976007,-1.087933,-1.141651,-1.155331,-1.001368,-0.948866,-1.017116,-1.128748,-1.022666,-0.992804,-0.872371,-1.104037,-0.891099,-0.890025,-0.049011,-0.842714,-0.368382,-1.189009,-1.177956,'\'(-inf-14.9]\'',-0.518507,-0.631921,-0.682855,-0.611333,-0.659541,-0.254615,-1.134081,-0.090262,-0.948187,-0.908528,0.559913,0.360186,0.83109,-1.125302,-1.182827,-1.231657,-1.199367,-1.164287,-1.012966,-0.426954,-1.179342,-0.524401,1.830597,0.985918,1.906792,1.503729,1.558239,1.72639,2.337378,2.038649,0.904168,1.342284,-1.209826,-1.548055,-1.051735,-1.070148,1.414563,-0.45378,-0.819285,-0.769294,-0.646924,-0.538923,-0.529307,-0.932276,-0.892998,-0.850845,0.367186,-0.701956,0.309901,-0.165322,0.119482,0.154951,0.032534,0.035128,0.022941,0.157836,0.061265,0.239447,0.253664,-0.473295,0.041165,-0.159559,0.110852,0.15345,1.523624,1.36738,1.222579,-0.950026,-1.229103,-1.192385,-1.22446,-1.130229,-1.003385,-1.125513,-1.168466,-1.287728,-1.197985,-1.040129,-1.274265,-1.42433,-1.105205,-1.165504,-1.193534,-1.180282,-1.211329,-1.264416,-1.257073,-1.124886,-1.111126,-1.058121,-1.147449,-0.909095,-0.967857,-0.804349,'\'(-inf-6.266667]\''
-0.981649,-0.994698,-0.998767,-1.030063,-0.973836,-1.081882,-1.132944,-1.147724,-0.982524,-0.935119,-0.995972,-1.126642,-1.020509,-0.995354,-0.873646,-1.099224,-0.930429,-0.883485,-0.032352,-0.809721,-0.395428,-1.170712,-1.165495,'\'(-inf-14.9]\'',-0.40588,-0.5389,-0.67786,-0.578998,-0.667112,-0.30418,-1.127611,-0.050851,-0.91744,-0.885491,0.576298,0.377921,0.844961,-1.121367,-1.178431,-1.222664,-1.198941,-1.157743,-1.005672,-0.296061,-1.179342,-0.461163,1.97223,1.979099,1.947195,1.586344,1.264264,1.866326,2.305591,2.354226,0.993669,1.431466,-1.199713,-1.533599,-1.05085,-1.070148,1.160529,-0.453657,-0.818242,-0.762878,-0.646461,-0.538832,-0.529307,-0.931606,-0.892488,-0.849262,0.407732,-0.705469,0.438809,-0.266714,0.039023,-0.015791,-0.044651,-0.03587,-0.049623,0.109214,0.019945,0.190964,0.219305,-0.406891,0.1465,-0.052894,0.195391,0.248726,1.530356,1.344021,1.229834,-0.953824,-1.227571,-1.189542,-1.222959,-1.122256,-1.003385,-1.124156,-1.167291,-1.284525,-1.199376,-1.039561,-1.274265,-1.421273,-1.104311,-1.164325,-1.193534,-1.179043,-1.210016,-1.262223,-1.25631,-1.12354,-1.111126,-1.057028,-1.148816,-0.908195,-0.96692,-0.802527,'\'(-inf-6.266667]\''
-0.976976,-0.988491,-0.993387,-1.019842,-0.973957,-1.06535,-1.124377,-1.141706,-0.966449,-0.928949,-0.972731,-1.124046,-0.994143,-0.988713,-0.837325,-1.087085,-0.948475,-0.826603,0.062749,-0.791096,-0.373589,-1.165498,-1.159775,'\'(-inf-14.9]\'',-0.383904,-0.663302,-0.67453,-0.572191,-0.665598,-0.369643,-1.119341,-0.02277,-0.481856,-0.908528,0.591045,0.401114,0.846942,-1.114914,-1.164009,-1.213311,-1.18255,-1.152135,-0.996388,-0.361507,-1.038209,-0.334687,2.268609,2.231101,2.058306,1.861728,1.585799,2.008903,2.257912,2.564612,1.12792,1.538483,-1.191164,-1.519908,-1.050179,-1.068511,1.075852,-0.453554,-0.817283,-0.757168,-0.64571,-0.538468,-0.528661,-0.931623,-0.892428,-0.848012,0.412852,-0.700492,0.245373,-0.143346,-0.17461,-0.06878,-0.112188,-0.084278,-0.070787,0.080041,0.061265,0.187235,0.219305,0.522766,0.658128,0.505532,0.596952,0.634842,1.466807,1.258061,1.295125,-0.975661,-1.222975,-1.185278,-1.219958,-1.119598,-1.003385,-1.135014,-1.166115,-1.281322,-1.199376,-1.038992,-1.269198,-1.418215,-1.103417,-1.163147,-1.190946,-1.176565,-1.207513,-1.253418,-1.252784,-1.121965,-1.104992,-1.054843,-1.140614,-0.907859,-0.96557,-0.800277,'\'(-inf-6.266667]\''
-0.972651,-0.982677,-0.993259,-1.008162,-0.975397,-1.03066,-1.094755,-1.114807,-0.930353,-0.887169,-0.946411,-1.109088,-0.953521,-0.962573,-0.766245,-1.053307,-0.946994,-0.809819,0.38587,-0.72245,-0.257288,-1.154476,-1.14373,'\'(-inf-14.9]\'',-0.37841,-0.695803,-0.68896,-0.633457,-0.658026,-0.37806,-1.108863,0.038317,-0.492837,-0.879732,0.624224,0.450226,0.855859,-1.108367,-1.153809,-1.192537,-1.152467,-1.148863,-0.979589,-0.361507,-1.038209,-0.334687,2.790551,3.209459,1.735076,2.153636,2.614711,2.286136,3.195614,1.863328,1.282061,2.198427,-1.183839,-1.539364,-1.049227,-1.068648,0.82181,-0.453186,-0.816038,-0.749045,-0.645479,-0.537013,-0.527092,-0.931168,-0.891704,-0.847197,0.393469,-0.697275,0.136747,-0.066368,-0.349401,-0.254242,-0.314798,-0.268229,-0.167538,0.047626,0.068151,0.164858,0.167765,0.947752,1.064421,0.919644,0.903406,0.880553,1.457271,1.18524,1.381199,-0.94433,-1.224507,-1.18812,-1.218457,-1.111626,-1.003385,-1.132299,-1.16494,-1.278118,-1.195202,-1.038424,-1.269198,-1.412101,-1.10163,-1.161968,-1.189653,-1.175327,-1.204888,-1.240802,-1.250053,-1.120132,-1.101312,-1.047197,-1.13788,-0.908374,-0.965957,-0.799476,'\'(-inf-6.266667]\''
-0.965323,-0.976863,-0.991241,-1.020214,-0.973831,-1.01563,-1.079958,-1.102404,-0.915541,-0.881527,-0.924464,-1.101147,-0.93873,-0.952925,-0.757406,-1.042098,-0.823231,-0.739906,0.468241,-0.689457,-0.190043,-1.152665,-1.138831,'\'(-inf-14.9]\'',-0.670965,-0.717097,-0.669535,-0.672599,-0.614114,-0.414065,-1.102329,0.062949,-0.52212,-0.89509,0.656174,0.492518,0.871711,-1.103425,-1.144488,-1.184803,-1.143718,-1.145591,-0.972516,-0.230615,-0.755943,-0.208211,2.517777,1.578862,1.957296,2.423512,2.017575,2.103955,2.845962,1.863328,1.033447,2.234099,-1.175367,-1.511532,-1.04735,-1.067802,0.991166,-0.452735,-0.814692,-0.742629,-0.646115,-0.537923,-0.528015,-0.93026,-0.890666,-0.846033,0.371083,-0.695795,0.089638,-0.050139,-0.407664,-0.319006,-0.372687,-0.277911,-0.170562,0.080041,0.112914,0.194694,0.167765,1.213369,1.297663,1.132975,1.056633,0.985858,1.432349,1.110633,1.446294,-0.950026,-1.219911,-1.185278,-1.215456,-1.10764,-1.003385,-1.132299,-1.162589,-1.271712,-1.196594,-1.037856,-1.26582,-1.409043,-1.100736,-1.160789,-1.187065,-1.172849,-1.202355,-1.239385,-1.245383,-1.118557,-1.097631,-1.043919,-1.132411,-0.908408,-0.965925,-0.799581,'\'(-inf-6.266667]\''
-0.959561,-0.970092,-0.977565,-0.99975,-0.968936,-1.00519,-1.072589,-1.097826,-0.916263,-0.891428,-0.915306,-1.09523,-0.925337,-0.945318,-0.730644,-1.032571,-0.814037,-0.727804,0.531998,-0.655399,-0.190713,-1.134711,-1.123542,'\'(-inf-14.9]\'',-0.407253,-0.775375,-0.702835,-0.742375,-0.628499,-0.417572,-1.092987,0.122558,-0.500158,-0.873973,0.691402,0.537538,0.891525,-1.097916,-1.133584,-1.167086,-1.136957,-1.140917,-0.965664,-0.230615,-0.755943,-0.208211,2.370899,2.038394,1.371442,2.032467,2.403417,1.934975,1.892367,1.723071,1.386479,1.672256,-1.174651,-1.500723,-1.046263,-1.066657,0.737132,-0.452326,-0.813379,-0.731563,-0.645768,-0.537923,-0.528107,-0.92928,-0.889911,-0.844461,0.402828,-0.693848,0.030185,-0.01567,-0.260618,-0.233635,-0.202237,-0.119778,-0.049623,0.138388,0.109471,0.183505,0.171201,1.027437,1.026801,0.787881,0.755463,0.720089,1.428823,1.084382,1.474528,-0.979459,-1.219911,-1.185278,-1.213955,-1.10764,-1.003385,-1.121441,-1.162589,-1.271712,-1.196594,-1.037287,-1.26582,-1.409043,-1.099842,-1.15961,-1.187065,-1.172849,-1.201439,-1.236653,-1.245637,-1.117383,-1.093951,-1.040642,-1.129677,-0.908408,-0.965688,-0.79769,'\'(-inf-6.266667]\''
-0.958316,-0.966707,-0.975067,-0.992107,-0.968458,-0.990223,-1.056019,-1.078535,-0.887748,-0.849683,-0.905185,-1.086871,-0.912579,-0.937091,-0.715166,-1.017603,-0.831704,-0.760152,0.652701,-0.639435,-0.14563,-1.134618,-1.120846,'\'(-inf-14.9]\'',-0.508892,-0.683475,-0.718931,-0.861503,-0.597458,-0.416403,-1.086106,0.153595,-0.545547,-0.867574,0.716389,0.57028,0.904405,-1.093037,-1.127604,-1.157104,-1.1296,-1.134841,-0.959254,-0.230615,-0.332544,-0.144973,2.147959,1.65298,1.613864,2.351912,1.10809,2.024745,2.575777,2.319162,1.381507,1.155003,-1.17084,-1.511126,-1.045443,-1.064788,0.737132,-0.452059,-0.812555,-0.727089,-0.645075,-0.537286,-0.527461,-0.927374,-0.889114,-0.843208,0.451976,-0.692991,0.004891,-0.011828,-0.166287,-0.101162,-0.208669,-0.084278,0.038058,0.235632,0.150791,0.205882,0.171201,0.961033,0.996705,0.649844,0.607519,0.549596,1.424175,1.094524,1.459038,-0.992751,-1.219911,-1.185278,-1.212454,-1.099667,-1.003385,-1.118727,-1.161414,-1.265305,-1.196594,-1.036719,-1.264131,-1.405986,-1.098949,-1.15961,-1.185772,-1.17161,-1.200462,-1.228962,-1.246018,-1.116323,-1.091497,-1.036273,-1.126943,-0.907763,-0.964938,-0.79689,'\'(-inf-6.266667]\''
-0.954469,-0.962316,-0.970775,-0.985132,-0.965887,-0.990079,-1.058646,-1.084535,-0.8984,-0.862371,-0.911684,-1.087215,-0.909379,-0.931467,-0.703965,-1.015161,-0.86587,-0.744253,0.64006,-0.611763,-0.101566,-1.128529,-1.113219,'\'(-inf-14.9]\'',-0.559712,-0.64537,-0.738356,-0.762797,-0.667869,-0.394192,-1.076417,0.214189,-0.521388,-0.850936,0.754893,0.61871,0.927192,-1.087245,-1.122328,-1.147211,-1.124828,-1.129233,-0.946434,-0.296061,-0.473677,-0.144973,2.07452,1.890158,2.098709,1.949851,0.933543,1.834643,2.178445,2.225658,0.948918,1.574156,-1.16391,-1.475368,-1.043452,-1.062524,0.737132,-0.451998,-0.81173,-0.722674,-0.644728,-0.537104,-0.527277,-0.925569,-0.888344,-0.841615,0.493658,-0.693848,0.030185,-0.055173,-0.138542,-0.130601,-0.215101,-0.119778,-0.058693,0.131905,0.130131,0.205882,0.167765,0.403239,0.6807,0.549453,0.554682,0.494436,1.431868,1.102635,1.463352,-1.025032,-1.216848,-1.182435,-1.210953,-1.091694,-1.003385,-1.120084,-1.160239,-1.262101,-1.195202,-1.036151,-1.262442,-1.402929,-1.098055,-1.157252,-1.184478,-1.170371,-1.199028,-1.225555,-1.244811,-1.115063,-1.089043,-1.032995,-1.124209,-0.906966,-0.963817,-0.797404,'\'(-inf-6.266667]\''
-0.951884,-0.959126,-0.967989,-0.98016,-0.964599,-0.986063,-1.053116,-1.082656,-0.897389,-0.861585,-0.910395,-1.085518,-0.907034,-0.931158,-0.686863,-1.010269,-0.919686,-0.79166,0.65279,-0.592606,-0.080641,-1.122378,-1.106774,'\'(-inf-14.9]\'',-0.440217,-0.695803,-0.753341,-0.757691,-0.690582,-0.368474,-1.067295,0.243748,-0.511139,-0.843257,0.770868,0.635081,0.942053,-1.080036,-1.111952,-1.139118,-1.116362,-1.117081,-0.948866,-0.165169,-0.473677,-0.081735,2.161073,1.756745,1.67447,1.922313,1.75116,2.140919,2.067193,2.202282,1.466036,1.770355,-1.162005,-1.523646,-1.040772,-1.061679,0.737132,-0.451854,-0.810653,-0.716199,-0.644497,-0.537377,-0.527553,-0.924239,-0.887746,-0.840005,0.551561,-0.693614,0.023236,-0.069602,-0.085828,-0.086443,-0.144348,-0.045552,0.028988,0.151353,0.123244,0.179776,0.157457,0.536047,0.582889,0.417689,0.417306,0.384117,1.383225,1.083174,1.378454,-1.069655,-1.213784,-1.178171,-1.210953,-1.090366,-1.003385,-1.121441,-1.159063,-1.262101,-1.195202,-1.035582,-1.260753,-1.399872,-1.097161,-1.157252,-1.184478,-1.169132,-1.198051,-1.22434,-1.244843,-1.113774,-1.089043,-1.03518,-1.122842,-0.905731,-0.962499,-0.79764,'\'(-inf-6.266667]\''
-0.946297,-0.952258,-0.961615,-0.987267,-0.963537,-0.987503,-1.045282,-1.074795,-0.878591,-0.829231,-0.908439,-1.085557,-0.918121,-0.936118,-0.708978,-1.010436,-0.909268,-0.752073,0.611791,-0.558017,-0.03838,-1.118101,-1.101941,'\'(-inf-14.9]\'',-0.482796,-0.666664,-0.746126,-0.68281,-0.714052,-0.254615,-1.068842,0.184631,-0.535298,-0.862454,0.736051,0.586651,0.928183,-1.077801,-1.110897,-1.144334,-1.112584,-1.117548,-0.931846,-0.230615,-0.473677,-0.144973,2.155827,2.305219,1.694672,2.026959,1.209144,2.172603,2.226125,1.945144,1.679844,1.600911,-1.169683,-1.472891,-1.038893,-1.06082,0.737132,-0.451404,-0.809004,-0.704898,-0.643804,-0.536831,-0.527184,-0.923108,-0.886871,-0.839125,0.527233,-0.694237,0.04458,-0.113393,-0.060858,-0.018735,-0.121836,0.002856,0.038058,0.170802,0.123244,0.172317,0.167765,0.456362,0.560317,0.361219,0.359186,0.35403,1.355337,1.069467,1.134544,-1.048293,-1.212252,-1.175328,-1.209452,-1.082393,-1.003385,-1.130942,-1.157888,-1.262101,-1.193811,-1.035582,-1.257375,-1.393757,-1.096267,-1.154894,-1.181891,-1.167894,-1.195731,-1.219516,-1.241603,-1.112142,-1.087817,-1.032995,-1.121475,-0.905085,-0.961594,-0.798082,'\'(-inf-6.266667]\''
-0.937681,-0.941635,-0.956939,-0.96,-0.961634,-0.966551,-1.026216,-1.056388,-0.851818,-0.816915,-0.871304,-1.075166,-0.896052,-0.92208,-0.684448,-0.991968,-0.88413,-0.740312,0.76576,-0.494691,0.0219,-1.106423,-1.0905,'\'(-inf-14.9]\'',-0.431976,-0.637525,-0.745016,-0.71004,-0.700424,-0.460824,-1.055207,0.301879,-0.468679,-0.834298,0.811831,0.708068,0.935118,-1.071694,-1.102455,-1.132463,-1.102954,-1.112407,-0.921236,-0.165169,-0.473677,-0.081735,2.496795,2.660985,1.896691,2.126097,1.824654,2.352144,2.400951,2.377603,1.784262,1.583074,-1.150394,-1.488654,-1.036345,-1.05801,0.567777,-0.450974,-0.807456,-0.694538,-0.643804,-0.536831,-0.527277,-0.921468,-0.885947,-0.837756,0.511056,-0.691277,-0.038919,-0.057128,0.011278,-0.042286,-0.108972,0.018992,0.044105,0.18701,0.157677,0.164858,0.154021,0.150903,0.409838,0.267103,0.216526,0.20861,1.367999,1.070758,1.145328,-1.055888,-1.209188,-1.173906,-1.207952,-1.078407,-1.003385,-1.129585,-1.156713,-1.268508,-1.191029,-1.035014,-1.257375,-1.3907,-1.095374,-1.153715,-1.181891,-1.166655,-1.193838,-1.213849,-1.239601,-1.110653,-1.082909,-1.029718,-1.116006,-0.90455,-0.960558,-0.797649,'\'(-inf-6.266667]\''
-0.934132,-0.936508,-0.955434,-0.93997,-0.957828,-0.954567,-1.016718,-1.04589,-0.837995,-0.800562,-0.862203,-1.070756,-0.881925,-0.91427,-0.666975,-0.980862,-0.872186,-0.695263,0.840735,-0.472873,0.082471,-1.110326,-1.09165,'\'(-inf-14.9]\'',-0.338579,-0.806756,-0.758891,-0.771306,-0.692096,-0.448199,-1.051325,0.329467,-0.426951,-0.82342,0.825348,0.723757,0.945025,-1.069585,-1.099113,-1.125178,-1.100852,-1.1082,-0.91129,-0.165169,-0.191412,-0.081735,2.756454,2.690632,2.007801,2.731943,1.613359,2.695385,2.337378,2.926942,2.23674,1.538483,-1.127183,-1.457129,-1.030822,-1.055801,0.398413,-0.450503,-0.805841,-0.686238,-0.643746,-0.536922,-0.527461,-0.920294,-0.885141,-0.836429,0.520575,-0.692523,-0.000669,-0.112003,0.027925,0.051917,0.096855,0.20617,0.207373,0.261564,0.274749,0.176046,0.119662,0.775102,0.530221,0.436513,0.195391,0.123363,1.373288,1.070343,1.12729,-1.05304,-1.206124,-1.169642,-1.203449,-1.075749,-1.003385,-1.121441,-1.154362,-1.252491,-1.188246,-1.035014,-1.252308,-1.387642,-1.09448,-1.152536,-1.17801,-1.164177,-1.190908,-1.207642,-1.23382,-1.109221,-1.079229,-1.025349,-1.113272,-0.904941,-0.96035,-0.796246,'\'(-inf-6.266667]\''
-0.912448,-0.918207,-0.940957,-0.923617,-0.954931,-0.934526,-0.991793,-1.022205,-0.802201,-0.765932,-0.831019,-1.060187,-0.867922,-0.90322,-0.626177,-0.960463,-0.792386,-0.605169,1.010971,-0.390923,0.163805,-1.107235,-1.08925,'\'(-inf-14.9]\'',-0.341326,-0.714856,-0.763331,-0.740673,-0.711781,-0.472514,-1.038384,0.406812,-0.428415,-0.799103,0.874093,0.789923,0.966821,-1.061621,-1.087154,-1.116725,-1.086592,-1.103059,-0.904438,-0.099723,-0.191412,-0.018497,2.766946,3.016752,2.017902,2.709912,1.475559,2.592413,2.702923,2.085401,2.06271,1.948719,-1.13539,-1.471495,-1.028082,-1.054069,0.313735,-0.450134,-0.804394,-0.67682,-0.643053,-0.536194,-0.526815,-0.917655,-0.884332,-0.834963,0.419888,-0.692368,0.013504,-0.135108,0.077865,0.09313,0.122583,0.20617,0.207373,0.238874,0.250646,0.172317,0.109354,0.549328,0.349647,0.285926,0.100285,0.023073,1.381542,1.069274,1.036706,-1.054464,-1.209188,-1.171064,-1.200448,-1.070434,-1.003385,-1.122798,-1.153187,-1.242881,-1.189637,-1.032741,-1.250619,-1.387642,-1.093586,-1.151357,-1.176716,-1.162938,-1.190176,-1.224509,-1.231914,-1.108075,-1.075548,-1.019887,-1.109171,-0.905284,-0.960066,-0.795864,'\'(-inf-6.266667]\''
-0.90266,-0.910087,-0.937466,-0.900639,-0.953527,-0.915829,-0.97615,-1.005029,-0.783896,-0.728957,-0.834367,-1.050953,-0.846837,-0.89018,-0.600157,-0.942445,-0.766677,-0.733964,1.154041,-0.356334,0.328245,-1.104081,-1.076954,'\'(-inf-14.9]\'',-0.561085,-0.811239,-0.809396,-0.79343,-0.75115,-0.473683,-1.028947,0.44376,-0.445985,-0.82214,0.919971,0.85336,0.985645,-1.05457,-1.073964,-1.103595,-1.073667,-1.097918,-0.89626,-0.165169,-0.050279,-0.018497,2.599085,2.453455,1.46235,2.632804,1.861401,2.275575,3.100254,1.816575,1.565482,1.761437,-1.12661,-1.462308,-1.025297,-1.051996,0.14438,-0.449847,-0.803216,-0.672287,-0.643573,-0.538014,-0.528661,-0.914565,-0.883451,-0.833243,0.412249,-0.688084,-0.087448,-0.047207,0.08064,0.084299,0.135448,0.193261,0.131786,0.219425,0.18178,0.138751,0.085302,0.190746,0.289455,0.147889,0.042164,-0.022058,1.379859,1.069051,0.951808,-1.032152,-1.204592,-1.168221,-1.195945,-1.055818,-1.003385,-1.124156,-1.150836,-1.236474,-1.186855,-1.032741,-1.247241,-1.384585,-1.092692,-1.150178,-1.174129,-1.160461,-1.188222,-1.222923,-1.229373,-1.106471,-1.074321,-1.015517,-1.107804,-0.905429,-0.959179,-0.794672,'\'(-inf-6.266667]\''
-0.899078,-0.903537,-0.934039,-0.884313,-0.948785,-0.897834,-0.963603,-0.989575,-0.762192,-0.696502,-0.826844,-1.044149,-0.823933,-0.872065,-0.579282,-0.923114,-0.790904,-0.787368,1.30865,-0.195626,0.550951,-1.093122,-1.063473,'\'(-inf-14.9]\'',-0.819302,-0.728304,-0.828267,-0.825765,-0.762507,-0.512728,-1.019637,0.485141,-0.476732,-0.863734,0.982643,0.937943,1.014377,-1.047928,-1.061126,-1.090015,-1.058213,-1.093244,-0.887197,-0.361507,-0.050279,-0.081735,2.454829,3.342871,0.724982,2.489604,1.714413,2.764033,4.05385,2.389291,2.067683,1.529565,-1.108136,-1.454382,-1.020353,-1.050264,-0.024976,-0.449274,-0.801802,-0.663223,-0.643053,-0.538377,-0.529399,-0.912686,-0.882864,-0.831297,0.4625,-0.686214,-0.118719,-0.021438,0.15555,0.149063,0.228713,0.261032,0.207373,0.232391,0.209327,0.123833,0.064686,0.164184,0.116405,0.028674,-0.121631,-0.187536,1.359344,1.071547,0.938867,-0.987529,-1.198464,-1.161114,-1.186941,-1.0319,-1.003385,-1.124156,-1.149661,-1.230068,-1.185463,-1.032172,-1.245552,-1.37847,-1.091799,-1.148999,-1.172835,-1.159222,-1.186116,-1.217526,-1.226736,-1.104925,-1.071868,-1.00787,-1.102335,-0.905435,-0.957756,-0.792183,'\'(-inf-6.266667]\''
-0.902945,-0.909474,-0.925264,-0.868514,-0.945105,-0.886117,-0.954329,-0.982719,-0.766955,-0.701414,-0.830641,-1.035063,-0.81022,-0.859125,-0.576374,-0.911621,-0.780044,-0.798607,1.380745,-0.142411,0.741954,-1.10736,-1.071331,'\'(-inf-14.9]\'',-0.77535,-0.85831,-0.861012,-0.84959,-0.796577,-0.577723,-1.008621,0.575295,-0.502354,-0.82086,1.030978,1.002062,1.038155,-1.042703,-1.051453,-1.075536,-1.049379,-1.08857,-0.885871,-0.361507,0.090854,-0.208211,2.756454,2.305219,3.199711,2.362928,1.374505,2.373267,2.957215,2.517859,1.570454,1.618747,-1.097031,-1.45141,-1.014714,-1.046418,-0.109654,-0.448803,-0.800456,-0.657395,-0.642879,-0.537013,-0.528199,-0.909836,-0.881827,-0.828435,0.618204,-0.685513,-0.13166,-0.025824,0.324791,0.257985,0.338058,0.364303,0.319241,0.290738,0.24376,0.14994,0.054378,-0.154556,-0.207125,-0.291322,-0.40695,-0.508464,1.326728,1.076971,0.961219,-0.975661,-1.193869,-1.155428,-1.183939,-1.015955,-1.003385,-1.118727,-1.14731,-1.230068,-1.185463,-1.031604,-1.240485,-1.37847,-1.090905,-1.14782,-1.168954,-1.156744,-1.184132,-1.21756,-1.220955,-1.104409,-1.065734,-0.996947,-1.098234,-0.906644,-0.958078,-0.791131,'\'(-inf-6.266667]\''
-0.899384,-0.905255,-0.919691,-0.866551,-0.94193,-0.862727,-0.930503,-0.95964,-0.734577,-0.671665,-0.800712,-1.023596,-0.788354,-0.845123,-0.531776,-0.887861,-0.797825,-0.845322,1.577526,-0.145604,0.662836,-1.079977,-1.04664,'\'(-inf-14.9]\'',-0.467687,-0.94909,-0.890427,-0.875118,-0.825346,-0.608117,-0.996091,0.676286,-0.481856,-0.777986,1.085867,1.076413,1.062923,-1.036659,-1.040549,-1.053683,-1.042135,-1.078287,-0.881229,-0.099723,0.231987,0.107979,2.252872,2.127335,2.634059,1.988405,0.860049,2.254452,2.321485,2.845125,1.545593,1.369039,-1.085079,-1.425649,-1.007705,-1.043145,-0.109654,-0.448659,-0.799817,-0.659985,-0.643688,-0.538105,-0.529676,-0.903177,-0.880833,-0.826422,0.654,-0.688785,-0.040484,-0.140859,0.502357,0.375738,0.399163,0.432074,0.409945,0.375017,0.305739,0.176046,0.07843,-0.606103,-0.493034,-0.579946,-0.708121,-0.794291,1.076461,0.845538,1.100232,-0.993226,-1.186209,-1.148321,-1.174935,-0.988051,-1.003385,-1.09701,-1.143785,-1.223661,-1.182681,-1.031036,-1.233729,-1.375413,-1.090011,-1.146641,-1.165073,-1.153028,-1.180652,-1.210105,-1.213775,-1.102805,-1.065734,-1.005686,-1.096867,-0.906809,-0.957803,-0.792909,'\'(-inf-6.266667]\''
-0.898226,-0.904764,-0.918506,-0.871575,-0.940247,-0.86202,-0.924585,-0.95352,-0.727052,-0.669577,-0.788939,-1.019156,-0.793192,-0.843657,-0.547323,-0.885142,-0.77568,-0.894318,1.555586,-0.125915,0.721381,-1.064927,-1.028885,'\'(-inf-14.9]\'',-0.636627,-0.862793,-0.893202,-0.910856,-0.813233,-0.583802,-0.987569,0.726535,-0.484785,-0.766467,1.119866,1.122116,1.078775,-1.031371,-1.032107,-1.049996,-1.034721,-1.071744,-0.873714,-0.034277,0.090854,0.107979,2.452207,2.216277,1.866388,2.924712,0.639568,1.821441,2.702923,1.746447,1.108031,1.31553,-1.071132,-1.415156,-0.998242,-1.039981,-0.109654,-0.448762,-0.799615,-0.668638,-0.643226,-0.537923,-0.529676,-0.898033,-0.879697,-0.824433,0.692187,-0.690187,0.003657,-0.214341,0.643854,0.549425,0.556749,0.651524,0.609495,0.439847,0.329842,0.202153,0.099046,-0.406891,-0.726276,-0.856022,-0.940603,-1.019944,0.916268,0.681931,1.188855,-0.988004,-1.172422,-1.131265,-1.164429,-0.958818,-1.003385,-1.045434,-1.139083,-1.210847,-1.181289,-1.030468,-1.225284,-1.372356,-1.088224,-1.144283,-1.159898,-1.148073,-1.175921,-1.206428,-1.20253,-1.100829,-1.06328,-1.003501,-1.0955,-0.906912,-0.957598,-0.79326,'\'(-inf-6.266667]\''
-0.896327,-0.901428,-0.922093,-0.876759,-0.941882,-0.864292,-0.931804,-0.962118,-0.754526,-0.694723,-0.814371,-1.014611,-0.790196,-0.843076,-0.542777,-0.88758,-0.827403,-0.90016,1.480184,-0.162633,0.637893,-1.059557,-1.025367,'\'(-inf-14.9]\'',-0.466314,-0.712614,-0.937603,-0.965315,-0.849574,-0.528626,-0.982172,0.753138,-0.48332,-0.755589,1.135022,1.145308,1.081747,-1.027688,-1.026303,-1.041722,-1.029977,-1.067537,-0.866641,-0.099723,0.37312,0.044741,1.715193,2.008747,1.603763,1.035576,1.576613,1.414833,2.035406,1.349052,1.088142,0.655586,-1.076806,-1.397547,-0.990532,-1.036844,-0.024976,-0.448557,-0.798874,-0.670345,-0.64236,-0.537559,-0.529214,-0.894847,-0.878654,-0.822879,0.699314,-0.691822,0.064047,-0.287489,0.652177,0.658346,0.611422,0.654751,0.609495,0.397707,0.316069,0.190964,0.119662,-0.446734,-0.846659,-0.899943,-0.972306,-1.0049,0.9351,0.717486,1.211011,-0.969015,-1.167826,-1.127,-1.161428,-0.948188,-1.003385,-1.031862,-1.135557,-1.198034,-1.177116,-1.029899,-1.218528,-1.366241,-1.08733,-1.143104,-1.154724,-1.144356,-1.170945,-1.196544,-1.193858,-1.097851,-1.059599,-1.001316,-1.091398,-0.906726,-0.956945,-0.7931,'\'(-inf-6.266667]\''
-0.892057,-0.897331,-0.920171,-0.880759,-0.941882,-0.853456,-0.920752,-0.951286,-0.738376,-0.698531,-0.781061,-1.008756,-0.780125,-0.83645,-0.53054,-0.877982,-0.786121,-0.89251,1.527033,-0.139218,0.74415,-1.060837,-1.022441,'\'(-inf-14.9]\'',-0.517133,-0.885208,-0.933718,-0.968719,-0.84276,-0.522781,-0.976081,0.785652,-0.472339,-0.735751,1.148949,1.175321,1.07184,-1.02369,-1.019444,-1.034348,-1.022137,-1.061929,-0.8578,-0.034277,0.090854,-0.018497,2.192547,1.741922,2.593655,1.751575,1.319385,1.47556,1.526822,1.594502,1.142837,0.860704,-1.072366,-1.403807,-0.983079,-1.032943,0.059702,-0.448106,-0.79768,-0.665813,-0.642071,-0.537468,-0.529214,-0.89184,-0.877797,-0.8209,0.726984,-0.694237,0.151013,-0.378126,0.851938,0.696616,0.643582,0.687023,0.621589,0.439847,0.378048,0.202153,0.109354,-1.349829,-1.290571,-1.238762,-1.336881,-1.380988,0.880767,0.709158,1.302967,-0.96854,-1.16323,-1.122736,-1.147921,-0.916297,-1.003385,-1.02779,-1.133207,-1.191627,-1.177116,-1.028763,-1.211772,-1.363184,-1.086436,-1.140746,-1.150842,-1.14064,-1.167618,-1.191045,-1.188489,-1.095703,-1.057146,-1.000224,-1.088664,-0.906053,-0.955472,-0.793922,'\'(-inf-6.266667]\''
-0.889294,-0.893062,-0.922445,-0.883242,-0.939848,-0.851316,-0.919943,-0.95171,-0.755006,-0.699635,-0.8103,-1.00291,-0.776737,-0.830808,-0.559486,-0.877698,-0.768914,-0.88121,1.477606,-0.125915,0.740114,-1.043009,-1.004785,'\'(-inf-14.9]\'',-0.381157,-0.965901,-0.954253,-0.990843,-0.86093,-0.529561,-0.968537,0.836394,-0.425487,-0.699916,1.166153,1.203288,1.07283,-1.019409,-1.013113,-1.01825,-1.016569,-1.057722,-0.845643,-0.099723,0.090854,-0.018497,1.670605,2.038394,1.805782,1.355021,0.685501,1.792398,2.162552,0.93997,1.833985,0.833949,-1.071727,-1.410698,-0.976224,-1.029343,0.059702,-0.447737,-0.796586,-0.664694,-0.641724,-0.53765,-0.529491,-0.888299,-0.876837,-0.819058,0.752837,-0.696106,0.225034,-0.454777,1.032277,0.91446,0.910513,0.883882,0.748575,0.40419,0.395265,0.231988,0.133406,-1.655288,-1.862391,-1.615229,-1.638051,-1.671829,0.784924,0.707649,1.392375,-0.979934,-1.15557,-1.114208,-1.135915,-0.883078,-1.003385,-1.019646,-1.129681,-1.185221,-1.174333,-1.028194,-1.206705,-1.363184,-1.084649,-1.138388,-1.146961,-1.138162,-1.163742,-1.187605,-1.181723,-1.093154,-1.053465,-0.995854,-1.08593,-0.905092,-0.954108,-0.793528,'\'(-inf-6.266667]\''
-0.88638,-0.888647,-0.915207,-0.866323,-0.939779,-0.845158,-0.913937,-0.947194,-0.761945,-0.701341,-0.821252,-0.995901,-0.770756,-0.824437,-0.556896,-0.871334,-0.767436,-0.927134,1.489874,-0.091325,0.819851,-1.04126,-1.001037,'\'(-inf-14.9]\'',-0.451205,-0.891932,-0.967018,-0.956806,-0.893486,-0.511091,-0.967717,0.854621,-0.386687,-0.674959,1.162876,1.212156,1.052025,-1.019755,-1.011354,-1.010876,-1.017336,-1.052581,-0.84719,-0.099723,0.090854,-0.018497,1.817483,1.223096,1.856287,2.004928,0.575261,1.179845,1.717541,1.465933,0.700304,0.63775,-1.068918,-1.386829,-0.971359,-1.026288,0.059702,-0.447574,-0.796047,-0.660456,-0.640626,-0.536467,-0.528384,-0.885207,-0.875858,-0.817485,0.77931,-0.695327,0.213374,-0.462184,1.562198,1.285383,1.174229,1.171103,1.07511,0.611646,0.474461,0.261824,0.171201,-2.757596,-2.817931,-2.669334,-2.604968,-2.57444,0.600689,0.7082,1.316496,-0.974712,-1.157102,-1.117051,-1.14642,-0.916297,-1.003385,-1.003359,-1.129681,-1.185221,-1.174333,-1.028194,-1.206705,-1.360127,-1.083755,-1.138388,-1.146961,-1.136923,-1.161269,-1.182275,-1.180421,-1.090605,-1.049785,-0.994762,-1.081829,-0.904461,-0.952685,-0.793761,'\'(-inf-6.266667]\''
-0.889314,-0.89316,-0.926577,-0.892328,-0.939112,-0.847486,-0.92043,-0.955559,-0.78608,-0.749843,-0.818026,-0.994325,-0.768708,-0.825848,-0.552184,-0.875175,-0.74339,-0.920945,1.398578,-0.142943,0.754239,-1.044226,-1.004161,'\'(-inf-14.9]\'',-0.425109,-0.952452,-0.949258,-0.990843,-0.854116,-0.438614,-0.959668,0.872849,-0.344958,-0.674319,1.175574,1.234666,1.050043,-1.012893,-1.004496,-0.996037,-1.013416,-1.047907,-0.83857,-0.165169,-0.050279,-0.081735,1.62864,1.475097,1.78558,1.272406,1.043783,1.153442,1.797007,1.454245,0.700304,0.521814,-1.068808,-1.380344,-0.964362,-1.023683,0.059702,-0.447533,-0.79566,-0.677232,-0.640511,-0.536285,-0.528384,-0.88182,-0.874916,-0.815882,0.791252,-0.696885,0.279194,-0.552052,1.589943,1.579766,1.386487,1.342145,1.205119,0.708891,0.56743,0.347603,0.270844,-2.319329,-2.667452,-2.562669,-2.536279,-2.479164,0.720895,0.714798,1.195325,-0.953824,-1.132591,-1.088623,-1.128411,-0.762161,-0.978174,-0.992501,-1.120279,-1.17561,-1.174333,-1.027626,-1.186437,-1.357069,-1.081074,-1.13603,-1.135318,-1.127013,-1.153364,-1.178766,-1.160344,-1.087598,-1.048558,-0.994762,-1.079095,-0.903808,-0.951235,-0.793498,'\'(-inf-6.266667]\''
-0.883455,-0.886169,-0.913285,-0.883821,-0.936099,-0.834236,-0.901599,-0.931069,-0.745777,-0.696807,-0.796023,-0.984297,-0.76187,-0.822777,-0.543305,-0.863479,-0.680044,-0.898,1.464219,-0.159972,0.705205,-1.033954,-0.994823,'\'(-inf-14.9]\'',-0.533615,-0.856069,-0.950923,-0.929577,-0.883643,-0.492153,-0.95626,0.86743,-0.322996,-0.67176,1.167382,1.228526,1.039145,-1.009147,-0.999747,-0.994778,-1.007905,-1.044635,-0.841222,-0.165169,0.090854,-0.018497,1.1644,1.519568,1.583562,0.721638,0.49258,0.876209,1.12949,0.811401,0.491468,0.825031,-1.073203,-1.383631,-0.958131,-1.020928,0.14438,-0.447492,-0.795576,-0.681411,-0.64028,-0.536013,-0.527738,-0.881278,-0.87402,-0.815065,0.754084,-0.695483,0.246161,-0.546631,1.667627,1.594485,1.264278,1.277601,1.050922,0.520884,0.460687,0.328955,0.305204,-3.368513,-3.314511,-2.932861,-2.710641,-2.569426,0.755914,0.717321,1.082782,-0.932937,-1.134123,-1.091466,-1.135915,-0.804681,-0.978174,-0.993858,-1.117928,-1.166,-1.175724,-1.026489,-1.186437,-1.357069,-1.078392,-1.132493,-1.134025,-1.124535,-1.150616,-1.176945,-1.159709,-1.084247,-1.043651,-0.986023,-1.074993,-0.903493,-0.950545,-0.792414,'\'(-inf-6.266667]\''
-0.874815,-0.875718,-0.919595,-0.851991,-0.934837,-0.820687,-0.887802,-0.917426,-0.734696,-0.708335,-0.76472,-0.97541,-0.749261,-0.816512,-0.509897,-0.848514,-0.731464,-0.801179,1.562254,-0.128575,0.876911,-1.024805,-0.978417,'\'(-inf-14.9]\'',-0.736892,-0.884087,-0.946483,-0.985737,-0.852602,-0.516936,-0.945813,0.913246,-0.290785,-0.674959,1.205477,1.2715,1.068867,-1.001655,-0.988491,-0.980659,-0.995945,-1.044168,-0.822434,-0.165169,-0.050279,-0.081735,0.647703,0.985918,1.007808,0.457269,-0.021876,0.102597,0.573226,0.484135,-0.060456,-0.236229,-1.054531,-1.345847,-0.950591,-1.018228,-0.024976,-0.447266,-0.795021,-0.686768,-0.639529,-0.535194,-0.526538,-0.880458,-0.873179,-0.813334,0.72577,-0.692212,0.171514,-0.515474,1.453994,1.250057,0.920161,0.912927,0.775786,0.430122,0.357388,0.317767,0.229612,-3.554445,-2.945838,-2.637962,-2.319648,-2.293628,0.76537,0.725839,1.104153,-0.967116,-1.135655,-1.092887,-1.129911,-0.836571,-0.978174,-0.984357,-1.113227,-1.159594,-1.17155,-1.022511,-1.18137,-1.350955,-1.073923,-1.127777,-1.130144,-1.120819,-1.146679,-1.177181,-1.152403,-1.081641,-1.041197,-0.982745,-1.072259,-0.903307,-0.949514,-0.791309,'\'(-inf-6.266667]\''
-0.872528,-0.873093,-0.917962,-0.831404,-0.933018,-0.812967,-0.881903,-0.911368,-0.726159,-0.709564,-0.747992,-0.971159,-0.740142,-0.809513,-0.468806,-0.837624,-0.751096,-0.847542,1.619023,-0.13975,0.70296,-1.00654,-0.967468,'\'(-inf-14.9]\'',-0.427856,-0.956935,-0.924838,-0.943191,-0.842003,-0.459655,-0.935934,0.951672,-0.245396,-0.674959,1.23456,1.310381,1.082738,-0.994258,-0.979346,-0.971036,-0.985094,-1.03669,-0.809614,0.031169,0.090854,-0.081735,0.770976,1.28239,0.492661,0.672068,0.336406,0.078834,0.732159,0.437383,0.024073,-0.52161,-1.040408,-1.340532,-0.94222,-1.013618,-0.109654,-0.446857,-0.793961,-0.685767,-0.639066,-0.535285,-0.526631,-0.879511,-0.872294,-0.811805,0.717301,-0.698287,0.405179,-0.676697,1.459543,1.241225,1.11634,1.119468,0.827185,0.478744,0.336729,0.343873,0.233048,-3.355233,-2.848026,-2.688158,-2.293229,-2.298642,0.874276,0.843972,1.021412,-0.976611,-1.129527,-1.08578,-1.123908,-0.829928,-0.978174,-0.966713,-1.109701,-1.149983,-1.165985,-1.021943,-1.172925,-1.347897,-1.071242,-1.12424,-1.124969,-1.114624,-1.14094,-1.170029,-1.140014,-1.078892,-1.037517,-0.979468,-1.069525,-0.903259,-0.948513,-0.789267,'\'(-inf-6.266667]\''
-0.875182,-0.875767,-0.925712,-0.848714,-0.939001,-0.817763,-0.896696,-0.929067,-0.773295,-0.743159,-0.801223,-0.968778,-0.734862,-0.804123,-0.428314,-0.836925,-0.898879,-0.853505,1.574575,-0.227022,0.54234,-1.001107,-0.964805,'\'(-inf-14.9]\'',-0.367422,-0.896415,-0.960913,-1.01637,-0.858659,-0.318208,-0.93243,0.98123,-0.210989,-0.67048,1.253812,1.335619,1.092645,-0.992652,-0.980929,-0.961593,-0.987139,-1.032483,-0.801878,-0.099723,-0.191412,-0.081735,0.251657,0.615328,0.250238,0.308561,-0.242357,-0.222162,0.414294,-0.111956,-0.368738,-0.236229,-1.063939,-1.352061,-0.936131,-1.007604,0.059702,-0.446468,-0.79285,-0.686827,-0.638027,-0.535012,-0.526261,-0.877933,-0.871461,-0.81107,0.709178,-0.703911,0.658278,-0.823192,1.437348,1.291271,0.99413,0.99038,0.736481,0.439847,0.340172,0.347603,0.253664,-3.647411,-2.878122,-2.631688,-2.245676,-2.228439,0.902565,0.862938,0.884948,-0.975186,-1.1234,-1.080095,-1.108901,-0.828599,-0.978174,-0.88392,-1.105,-1.140373,-1.16042,-1.020806,-1.166169,-1.34484,-1.069455,-1.120703,-1.119794,-1.110908,-1.135141,-1.166555,-1.129213,-1.075283,-1.03629,-0.978376,-1.066791,-0.903904,-0.947608,-0.787511,'\'(-inf-6.266667]\''
-0.883701,-0.88926,-0.926225,-0.847563,-0.936189,-0.829033,-0.907268,-0.943962,-0.807381,-0.823273,-0.786365,-0.969223,-0.746345,-0.820046,-0.399032,-0.849238,-0.861864,-0.886057,1.401013,-0.228619,0.458447,-0.991459,-0.959742,'\'(-inf-14.9]\'',-0.274024,-0.791066,-0.943153,-0.968719,-0.855631,-0.218844,-0.930253,0.946745,-0.178046,-0.697996,1.240704,1.311063,1.096608,-0.988277,-0.970377,-0.934704,-0.990236,-1.02594,-0.797457,-0.296061,-0.332544,-0.144973,0.054945,0.941447,0.654275,-0.137561,-0.756813,-0.108628,0.652693,0.262062,-0.269292,-0.450265,-1.038513,-1.333912,-0.92634,-1.00249,0.059702,-0.446283,-0.792144,-0.693125,-0.637853,-0.533648,-0.524693,-0.875693,-0.870936,-0.809925,0.755247,-0.702875,0.63323,-0.834731,1.354114,1.16763,1.097044,1.019425,0.781833,0.488469,0.426254,0.403545,0.253664,-3.049774,-2.539545,-2.286594,-2.00791,-2.078004,1.034309,1.040776,0.70182,-1.012689,-1.105016,-1.061616,-1.092392,-0.772791,-0.783211,-0.864918,-1.099123,-1.130763,-1.152072,-1.01967,-1.156035,-1.335668,-1.066773,-1.115987,-1.112032,-1.104714,-1.128334,-1.156098,-1.113743,-1.07239,-1.03629,-0.978376,-1.065424,-0.905552,-0.948226,-0.786554,'\'(-inf-6.266667]\''
-0.88965,-0.896546,-0.931445,-0.853831,-0.934837,-0.834147,-0.914076,-0.948289,-0.815807,-0.827125,-0.797917,-0.971456,-0.749628,-0.824755,-0.39656,-0.855315,-0.866496,-0.885893,1.291546,-0.272787,0.363716,-0.982529,-0.953199,'\'(-inf-14.9]\'',-0.230073,-0.76641,-0.926503,-0.921067,-0.854116,-0.156887,-0.925392,0.951179,-0.150959,-0.657682,1.215717,1.275593,1.087691,-0.983713,-0.966332,-0.916807,-0.990946,-1.017527,-0.787511,-0.165169,-0.473677,-0.208211,0.844415,1.356508,0.967405,0.754684,-0.021876,-0.032059,0.557333,0.414007,-0.254375,-0.28082,-1.037797,-1.322924,-0.9169,-0.998085,0.059702,-0.445976,-0.791386,-0.698952,-0.638604,-0.534921,-0.526077,-0.873529,-0.870102,-0.808815,0.763811,-0.704947,0.740391,-0.9109,1.165451,0.91446,0.888001,0.796748,0.618565,0.44633,0.415924,0.411004,0.270844,-2.863842,-2.125728,-1.878755,-1.638051,-1.711945,0.883572,0.970988,0.801619,-1.083422,-1.091229,-1.045981,-1.078885,-0.759503,-0.783211,-0.849988,-1.093247,-1.10834,-1.143725,-1.018533,-1.142523,-1.329553,-1.064986,-1.111271,-1.10427,-1.097281,-1.11997,-1.145674,-1.094397,-1.068868,-1.030156,-0.971821,-1.061322,-0.906198,-0.948337,-0.786568,'\'(-inf-6.266667]\''
-0.896094,-0.904273,-0.930036,-0.849533,-0.931546,-0.834247,-0.908583,-0.94193,-0.810703,-0.825976,-0.789751,-0.966069,-0.755159,-0.830996,-0.395416,-0.856969,-0.829065,-0.825086,1.227434,-0.264805,0.420839,-0.983528,-0.951062,'\'(-inf-14.9]\'',-0.256169,-0.792186,-0.915402,-0.880223,-0.857145,-0.189152,-0.924066,0.935907,-0.14437,-0.660241,1.204657,1.267407,1.07283,-0.981415,-0.964749,-0.916807,-0.988304,-1.016592,-0.783753,-0.230615,-0.332544,-0.208211,0.327719,0.585681,0.80579,0.055208,-0.040249,0.179166,0.477867,0.951658,-0.249403,0.05807,-1.042986,-1.309773,-0.909372,-0.992207,-0.024976,-0.445689,-0.790394,-0.702955,-0.638315,-0.535194,-0.526446,-0.868527,-0.869204,-0.808085,0.759155,-0.701839,0.62688,-0.883492,1.27088,1.102865,1.158148,1.077515,0.884631,0.605163,0.502007,0.470676,0.301768,-2.199801,-2.042965,-1.960323,-1.754293,-1.857366,0.805439,0.88262,0.930436,-1.105259,-1.083569,-1.040296,-1.059375,-0.786078,-0.783211,-0.795698,-1.08737,-1.092323,-1.132594,-1.01626,-1.132389,-1.323439,-1.061411,-1.105376,-1.096508,-1.091087,-1.111546,-1.127829,-1.07718,-1.064801,-1.027702,-0.969637,-1.058588,-0.907179,-0.949069,-0.785225,'\'(-inf-6.266667]\''
-0.89667,-0.909768,-0.927025,-0.858828,-0.92845,-0.839162,-0.916388,-0.950455,-0.818462,-0.837065,-0.793236,-0.973372,-0.75713,-0.830966,-0.422916,-0.863621,-0.765173,-0.580674,1.116189,-0.201479,0.503969,-0.988711,-0.955993,'\'(-inf-14.9]\'',-0.360555,-0.732787,-0.893202,-0.852994,-0.838974,-0.276124,-0.921352,0.927532,-0.073359,-0.679439,1.205477,1.289235,1.043108,-0.978172,-0.958769,-0.910422,-0.980293,-1.013788,-0.775133,-0.754184,-1.179342,-0.777353,0.464106,0.556033,1.007808,0.258992,-0.067809,-0.311932,0.112322,-0.111956,-0.542768,-0.057866,-1.034239,-1.314502,-0.901602,-0.988156,0.059702,-0.445587,-0.789922,-0.706193,-0.637102,-0.534193,-0.525892,-0.860892,-0.868196,-0.807125,0.753615,-0.705718,0.812752,-0.974986,1.592717,1.479676,1.277142,1.235648,1.14465,0.802894,0.605306,0.560184,0.387667,-2.598226,-2.456782,-2.499925,-2.240393,-2.313686,0.763928,0.839135,1.024549,-1.126147,-1.07591,-1.03461,-1.045868,-0.808667,-0.783211,-0.74005,-1.083844,-1.069899,-1.125638,-1.014555,-1.129011,-1.31121,-1.059623,-1.10066,-1.093921,-1.088609,-1.106357,-1.110051,-1.070382,-1.061336,-1.026475,-0.96636,-1.057221,-0.907248,-0.948565,-0.785057,'\'(-inf-6.266667]\''
-0.895782,-0.909032,-0.924399,-0.853256,-0.925763,-0.825791,-0.900346,-0.932897,-0.794378,-0.830558,-0.75587,-0.963234,-0.746977,-0.82397,-0.424427,-0.851812,-0.763198,-0.555343,1.188195,-0.228087,0.428297,-0.979063,-0.948694,'\'(-inf-14.9]\'',-0.195735,-0.785462,-0.898197,-0.871714,-0.83746,-0.255082,-0.916081,0.91029,-0.022114,-0.696716,1.199742,1.28105,1.041127,-0.971814,-0.951207,-0.898911,-0.971118,-1.009114,-0.768502,-0.296061,-0.473677,-0.271449,-0.010626,0.259561,0.361348,-0.137561,-0.297477,-0.618209,0.096429,-0.076892,-0.890828,-0.485938,-1.006545,-1.337425,-0.890816,-0.98176,0.059702,-0.445505,-0.789636,-0.71514,-0.636467,-0.533739,-0.526169,-0.857627,-0.867412,-0.806299,0.707969,-0.707891,0.934518,-1.04308,1.814673,1.744621,1.244982,1.261465,1.193025,0.887173,0.629409,0.604938,0.449514,-3.448198,-2.863074,-2.957959,-2.599684,-2.624585,0.676018,0.850943,1.073763,-1.151307,-1.066718,-1.027503,-1.021856,-0.839229,-0.783211,-0.655899,-1.077968,-1.053882,-1.11729,-1.012282,-1.118877,-1.292866,-1.055155,-1.094765,-1.086159,-1.081176,-1.099061,-1.082795,-1.059454,-1.05704,-1.01666,-0.96199,-1.044917,-0.906925,-0.947523,-0.786203,'\'(-inf-6.266667]\''
-0.89646,-0.909499,-0.926545,-0.857692,-0.925185,-0.828999,-0.898422,-0.930148,-0.78577,-0.810328,-0.759426,-0.962528,-0.754868,-0.823416,-0.423719,-0.851531,-0.709187,-0.538405,1.148352,-0.281301,0.263618,-0.97057,-0.947051,'\'(-inf-14.9]\'',-0.140795,-0.664422,-0.872667,-0.81215,-0.829132,-0.217207,-0.914345,0.888614,0.016686,-0.729992,1.200561,1.29401,1.024284,-0.968697,-0.947865,-0.890278,-0.968391,-1.005375,-0.764523,-0.361507,-0.61481,-0.334687,0.21756,0.719093,0.987606,-0.159592,-0.315851,-0.755505,-0.062504,-0.123644,-1.035024,-0.566201,-1.007272,-1.334543,-0.882236,-0.975132,0.229058,-0.445321,-0.789098,-0.719967,-0.636004,-0.533739,-0.526538,-0.854563,-0.866766,-0.805671,0.676596,-0.707798,0.949514,-1.061598,1.986689,1.850599,1.138852,1.171103,1.159767,0.861241,0.615636,0.642233,0.525105,-4.417698,-3.38975,-3.372072,-2.874436,-2.825165,0.734197,0.890595,1.027687,-1.131843,-1.066718,-1.030346,-1.008349,-0.877763,-0.783211,-0.643684,-1.073267,-1.037865,-1.108942,-1.008303,-1.112121,-1.271465,-1.05158,-1.08887,-1.080984,-1.07746,-1.092712,-1.042281,-1.053864,-1.052858,-1.010526,-0.955436,-1.038082,-0.906033,-0.946542,-0.786136,'\'(-inf-6.266667]\''
-0.892591,-0.90864,-0.923566,-0.860591,-0.921353,-0.825594,-0.901514,-0.928475,-0.786314,-0.813493,-0.757419,-0.960766,-0.745626,-0.826272,-0.419911,-0.85168,-0.753266,-0.492597,1.106606,-0.349948,0.130906,-0.95983,-0.940212,'\'(-inf-14.9]\'',-0.100964,-0.56916,-0.873777,-0.84959,-0.81399,-0.198971,-0.913335,0.825063,0.063538,-0.794623,1.186634,1.282414,1.007442,-0.963629,-0.941534,-0.883443,-0.960266,-1.003505,-0.753692,-0.361507,-0.61481,-0.397925,-0.299136,-0.170323,0.573468,-0.550638,-0.545519,-0.977291,-0.396262,-0.369094,-1.104636,-0.815909,-0.991474,-1.23632,-0.871401,-0.968245,0.14438,-0.445157,-0.788492,-0.722086,-0.635138,-0.533011,-0.526077,-0.849766,-0.866034,-0.804709,0.633189,-0.715961,1.434779,-1.226335,2.26136,2.071386,1.026291,1.113014,1.199072,0.952003,0.708605,0.73547,0.59726,-5.559848,-3.923949,-3.823831,-3.265429,-3.216297,0.713602,0.969926,1.02651,-1.084846,-1.045271,-1.010446,-0.979834,-0.819298,-0.783211,-0.651828,-1.069741,-1.028255,-1.101986,-1.005462,-1.108743,-1.253121,-1.047111,-1.082975,-1.077103,-1.072505,-1.087157,-1.006726,-1.047637,-1.049622,-1.006846,-0.954343,-1.03398,-0.905532,-0.945816,-0.787353,'\'(-inf-6.266667]\''
-0.894239,-0.91021,-0.916776,-0.872852,-0.914471,-0.843481,-0.907678,-0.930978,-0.790333,-0.81597,-0.762326,-0.963186,-0.773534,-0.842116,-0.463958,-0.865676,-0.758857,-0.477049,0.932156,-0.39518,0.098321,-0.964607,-0.943894,'\'(-inf-14.9]\'',0.013036,-0.702527,-0.853797,-0.790026,-0.813233,-0.049808,-0.913872,0.792549,0.110391,-0.785665,1.151407,1.241487,0.981682,-0.962087,-0.942238,-0.878677,-0.961317,-1.003038,-0.744851,-0.361507,-0.473677,-0.334687,-0.755508,-0.140676,0.108825,-1.101406,-0.82112,-1.201718,-0.634661,-0.357406,-1.393029,-0.931845,-0.969001,-1.264828,-0.857712,-0.963076,0.14438,-0.444993,-0.788038,-0.731563,-0.635196,-0.533284,-0.526354,-0.846805,-0.865588,-0.804111,0.59319,-0.718516,1.637935,-1.290909,2.008885,2.030173,1.479753,1.490597,1.368387,1.03304,0.787801,0.839896,0.696903,-3.607568,-3.051173,-3.108545,-2.63667,-2.614556,0.72995,1.081877,0.94024,-1.067756,-1.029952,-0.997654,-0.943816,-0.778106,-0.783211,-0.640969,-1.062689,-0.986611,-1.099203,-1.002052,-1.095231,-1.23172,-1.042642,-1.075901,-1.068048,-1.065072,-1.079221,-0.981864,-1.033628,-1.045441,-0.999485,-0.93905,-1.027145,-0.904323,-0.944736,-0.786954,'\'(-inf-6.266667]\''
-0.895265,-0.911584,-0.925936,-0.883458,-0.920422,-0.843208,-0.910928,-0.931925,-0.812981,-0.820407,-0.798984,-0.951995,-0.770026,-0.834763,-0.473182,-0.865428,-0.78329,-0.560394,0.898731,-0.471277,-0.131932,-0.951212,-0.943434,'\'(-inf-14.9]\'',0.169615,-0.481742,-0.819942,-0.69132,-0.810961,0.040672,-0.914156,0.732447,0.168225,-0.81766,1.119456,1.208063,0.952951,-0.95853,-0.941886,-0.881195,-0.953988,-1.00257,-0.724074,-0.4924,-0.755943,-0.461163,-0.734525,0.333679,0.078522,-1.13996,-0.949734,-1.405022,-0.507515,-0.45091,-1.641644,-1.172635,-1.001863,-1.283833,-0.851581,-0.95567,0.483099,-0.444809,-0.787398,-0.741569,-0.635022,-0.533193,-0.526261,-0.844811,-0.865242,-0.804041,0.525289,-0.724677,2.153781,-1.415315,1.822997,1.903588,1.190309,1.303419,1.220237,0.948761,0.787801,0.929404,0.837778,-3.368513,-2.742691,-2.688158,-2.155853,-2.07299,0.739647,1.050189,0.883184,-1.0369,-1.02076,-0.990547,-0.942315,-0.804681,-0.783211,-0.653185,-1.054462,-0.980205,-1.093638,-0.99921,-1.083408,-1.210318,-1.038173,-1.070006,-1.058992,-1.057639,-1.071254,-0.946343,-1.021303,-1.041174,-0.993351,-0.929218,-1.021677,-0.904028,-0.94485,-0.787268,'\'(-inf-6.266667]\''
-0.892106,-0.90918,-0.928435,-0.904713,-0.922698,-0.848489,-0.913567,-0.930246,-0.812926,-0.840004,-0.780518,-0.951289,-0.777514,-0.83866,-0.53734,-0.876023,-0.70643,-0.50444,0.761955,-0.597928,-0.285176,-0.950275,-0.945275,'\'(-inf-14.9]\'',0.169615,-0.380876,-0.791636,-0.616439,-0.805662,0.209006,-0.913525,0.655595,0.245825,-0.841337,1.067025,1.156904,0.900442,-0.95299,-0.934499,-0.876608,-0.94433,-1.001635,-0.71037,-0.426954,-0.897076,-0.461163,-0.944351,-0.19997,-0.143698,-1.173006,-1.096722,-1.447267,-0.428049,-0.462598,-1.696339,-1.252899,-1.03338,-1.339722,-0.853414,-0.948592,0.737132,-0.444542,-0.78649,-0.743394,-0.634791,-0.533375,-0.525062,-0.843282,-0.864876,-0.804374,0.432897,-0.723649,2.070065,-1.411034,1.467867,1.370754,0.997346,1.04847,0.972312,0.819101,0.739594,0.940592,0.940857,-2.757596,-2.080585,-1.972872,-1.463689,-1.280698,0.65943,1.052967,0.915535,-1.05304,-1.005441,-0.976333,-0.922805,-0.77412,-0.747916,-0.700689,-1.049761,-0.973798,-1.089464,-0.996937,-1.074963,-1.18586,-1.034598,-1.06529,-1.053817,-1.051445,-1.065699,-0.910822,-1.014918,-1.037966,-0.987217,-0.930311,-1.013474,-0.903733,-0.945175,-0.787535,'\'(-inf-6.266667]\''
-0.897955,-0.917839,-0.938011,-0.917768,-0.923955,-0.903271,-0.954721,-0.966881,-0.884795,-0.91105,-0.843388,-0.960588,-0.84229,-0.869221,-0.637518,-0.921688,-0.813148,-0.532354,0.288937,-0.721385,-0.558972,-0.942532,-0.957407,'\'(-inf-14.9]\'',0.621495,-0.215007,-0.760556,-0.575595,-0.781434,0.493538,-0.925045,0.485634,0.274376,-0.880372,0.949463,1.031393,0.798396,-0.953619,-0.941534,-0.87472,-0.955267,-1.001635,-0.69976,-0.754184,-1.320475,-0.777353,-1.059756,-0.73362,0.310844,-1.508975,-1.023228,-1.55552,-0.634661,-0.743112,-1.746062,-1.19939,-1.040629,-1.353863,-0.855477,-0.942414,0.991166,-0.444255,-0.785598,-0.747338,-0.634098,-0.533466,-0.524693,-0.84183,-0.864541,-0.804674,0.408303,-0.721857,1.928544,-1.390127,1.298625,1.194124,1.000562,0.977471,0.854396,0.725098,0.663842,0.798872,0.982088,-2.465418,-1.839819,-1.728169,-1.342164,-0.914639,0.54219,1.060003,0.900242,-1.032152,-0.988589,-0.960698,-0.9138,-0.760832,-0.747916,-0.715619,-1.043884,-0.957781,-1.08529,-0.995232,-1.066518,-1.170573,-1.031023,-1.060574,-1.047349,-1.04525,-1.059838,-0.893078,-1.006214,-1.034243,-0.984763,-0.924849,-1.012107,-0.903856,-0.945558,-0.786207,'\'(6.266667-10.533333]\''
-0.898557,-0.921887,-0.93974,-0.953148,-0.927609,-0.961174,-1.009679,-1.021295,-0.967537,-1.029952,-0.881099,-0.986133,-0.900097,-0.912117,-0.7973,-0.989093,-0.777298,-0.492663,-0.390498,-0.848568,-0.765193,-0.942095,-0.973255,'\'(-inf-14.9]\'',0.72176,0.046125,-0.650665,-0.42243,-0.699667,0.804021,-0.944392,0.254093,0.022542,-0.913008,0.792169,0.845857,0.687433,-0.958121,-0.959473,-0.885421,-0.972765,-1.00257,-0.693792,-0.754184,-1.602741,-0.903829,-1.19352,-0.392677,-0.042689,-1.597098,-1.234522,-1.328453,0.128215,-0.801552,-1.631699,-1.021027,-1.081906,-1.360123,-0.860886,-0.935963,1.49924,-0.444153,-0.785009,-0.751282,-0.633116,-0.533375,-0.524139,-0.840752,-0.864219,-0.804676,0.354517,-0.725495,2.239278,-1.457807,1.043375,1.261832,0.897649,0.845156,0.748575,0.605163,0.577759,0.798872,0.992396,-1.708411,-1.426002,-1.307781,-0.856064,-0.438261,0.423988,1.063335,0.908477,-1.028355,-0.988589,-0.962119,-0.9138,-0.796709,-0.747916,-0.733263,-1.039183,-0.957781,-1.081116,-0.992959,-1.058073,-1.155287,-1.027448,-1.055858,-1.040881,-1.040295,-1.053611,-0.8753,-0.997415,-1.030119,-0.979856,-0.919387,-1.008006,-0.904701,-0.945476,-0.784123,'\'(6.266667-10.533333]\''
-0.899464,-0.925273,-0.93247,-0.956089,-0.918955,-0.982691,-1.040555,-1.054683,-1.02255,-1.085278,-0.928389,-1.000305,-0.911845,-0.932161,-0.861488,-1.018146,-0.867532,-0.432038,-0.696088,-0.92839,-0.956004,-0.931229,-0.990253,'\'(-inf-14.9]\'',0.952507,0.600891,-0.523569,-0.180769,-0.633799,0.855457,-0.955723,0.092015,0.332941,-0.925166,0.649211,0.684194,0.576471,-0.959065,-0.968442,-0.901609,-0.975265,-1.004907,-0.679425,-0.885076,-1.743873,-0.967068,-1.044019,-0.392677,0.351247,-1.437375,-1.335576,-1.706018,-1.175032,-0.766488,-1.78584,-1.315326,-1.085079,-1.343189,-0.86622,-0.933781,1.49924,-0.444215,-0.784302,-0.754401,-0.633636,-0.532647,-0.523032,-0.840368,-0.864084,-0.804573,0.320048,-0.721218,1.911065,-1.387832,0.654952,0.734886,0.611422,0.603116,0.603448,0.637578,0.601863,0.776495,1.054243,-0.486576,-0.297412,-0.385439,-0.148049,0.35403,0.363885,1.056136,0.972983,-0.997023,-0.983994,-0.959276,-0.910799,-0.821955,-0.747916,-0.752265,-1.034482,-0.954578,-1.079725,-0.990117,-1.051317,-1.14,-1.024767,-1.051143,-1.037,-1.03534,-1.048697,-0.871961,-0.992777,-1.025565,-0.976175,-0.916109,-1.005271,-0.905786,-0.946908,-0.784043,'\'(6.266667-10.533333]\''
-0.899938,-0.930277,-0.924623,-0.963643,-0.915401,-1.017618,-1.075245,-1.086733,-1.054601,-1.121013,-0.952683,-1.019707,-0.945277,-0.952825,-0.959195,-1.056442,-0.795242,-0.52904,-1.088548,-0.959254,-0.980883,-0.94222,-1.002451,'\'(-inf-14.9]\'',0.477278,0.567268,-0.364837,0.149387,-0.564146,0.899878,-0.967559,-0.135585,0.354904,-1.003876,0.50994,0.526624,0.46848,-0.956326,-0.974774,-0.91411,-0.972538,-1.007244,-0.652238,-1.081414,-1.885006,-1.156782,-1.37974,0.318856,-0.658846,-1.635652,-1.703045,-1.698097,-0.936633,-0.930121,-1.845507,-1.190472,-1.091292,-1.389621,-0.871902,-0.934709,1.49924,-0.443989,-0.78299,-0.751517,-0.634907,-0.534648,-0.524785,-0.84186,-0.863741,-0.804114,0.303365,-0.715345,1.524088,-1.293789,0.408025,0.431671,0.367002,0.364303,0.346452,0.540333,0.563986,0.698175,0.999268,-0.433453,0.1465,0.103967,0.211242,0.720089,0.320051,0.976644,1.038666,-0.970439,-0.985525,-0.962119,-0.9138,-0.844544,-0.747916,-0.782125,-1.030956,-0.948171,-1.075551,-0.987276,-1.047939,-1.124714,-1.021192,-1.047606,-1.034412,-1.032862,-1.044362,-0.85081,-0.990871,-1.02167,-0.972495,-0.917202,-0.999803,-0.905319,-0.947365,-0.784141,'\'(6.266667-10.533333]\''
-0.89922,-0.930326,-0.926545,-0.998519,-0.921011,-1.03408,-1.087957,-1.090734,-1.04852,-1.106741,-0.955053,-1.029297,-0.964437,-0.962464,-1.025108,-1.074683,-0.702778,-0.599997,-1.285952,-0.996505,-1.060053,-0.930074,-1.004719,'\'(-inf-14.9]\'',0.815158,0.582959,-0.235521,0.457419,-0.524776,0.909698,-0.976081,-0.252833,0.373938,-1.061468,0.448087,0.461822,0.412999,-0.957334,-0.981105,-0.925891,-0.973049,-1.008179,-0.65069,-1.277752,-2.026139,-1.22002,-1.146309,-0.822562,-0.244708,-1.338237,-1.050788,-1.750903,-1.079673,-1.035314,-1.885286,-1.136963,-1.116761,-1.425424,-0.879209,-0.936113,1.83796,-0.443702,-0.781156,-0.743217,-0.634791,-0.535376,-0.525523,-0.844656,-0.863431,-0.804441,0.259474,-0.712479,1.373019,-1.244242,0.213813,0.343356,0.363786,0.364303,0.385758,0.601921,0.681058,0.716823,0.940857,0.668855,0.816131,0.756509,0.607519,0.985858,0.328385,0.939903,1.082194,-0.969965,-0.985525,-0.964962,-0.919803,-0.855174,-0.747916,-0.775339,-1.028605,-0.944967,-1.069986,-0.984434,-1.044561,-1.10637,-1.020298,-1.044069,-1.031825,-1.030385,-1.041646,-0.824329,-0.991506,-1.019236,-0.96636,-0.899724,-0.992968,-0.906149,-0.948668,-0.780782,'\'(6.266667-10.533333]\''
-0.89803,-0.931577,-0.92552,-0.987236,-0.917657,-1.031237,-1.074443,-1.073467,-0.999465,-1.058607,-0.911693,-1.032195,-0.971704,-0.972173,-1.004355,-1.074644,-0.623932,-0.617661,-1.306362,-0.993312,-1.082079,-0.922768,-1.004654,'\'(-inf-14.9]\'',0.433326,0.682704,-0.031279,0.751837,-0.377141,0.809866,-0.982014,-0.334119,0.344655,-1.101783,0.409582,0.391564,0.421916,-0.958058,-0.989547,-0.927779,-0.982651,-1.006777,-0.641628,-1.015968,-1.885006,-1.093544,-1.114835,-0.615031,-0.446727,-1.332729,-0.894614,-1.336374,-0.602875,-0.532727,-1.54717,-0.994272,-1.092327,-1.377822,-0.885191,-0.935991,1.668596,-0.443743,-0.779456,-0.735918,-0.634156,-0.534921,-0.525062,-0.845532,-0.863171,-0.804931,0.205166,-0.711747,1.344171,-1.228607,0.199941,0.358075,0.402379,0.486936,0.624612,0.825584,0.853223,0.821249,0.975216,1.784444,1.372902,1.101603,0.781881,1.061075,0.388808,0.981977,0.989453,-0.920119,-0.977866,-0.957855,-0.918303,-0.823284,-0.747916,-0.780768,-1.026255,-0.944967,-1.068595,-0.982161,-1.042872,-1.094141,-1.017617,-1.040532,-1.029238,-1.027907,-1.038929,-0.801188,-0.992078,-1.01663,-0.965134,-0.900816,-0.992968,-0.906699,-0.949174,-0.777607,'\'(6.266667-10.533333]\''
-0.892069,-0.925837,-0.907392,-0.987498,-0.906296,-1.035568,-1.073648,-1.070627,-0.988591,-1.02783,-0.920775,-1.03978,-0.980616,-0.982832,-0.980506,-1.076479,-0.69704,-0.696153,-1.344232,-0.99544,-1.105483,-0.907624,-0.99604,'\'(-inf-14.9]\'',0.620121,0.652444,0.080277,0.881176,-0.282503,0.686187,-0.976838,-0.340031,0.422254,-1.110102,0.404257,0.363597,0.449656,-0.952518,-0.982688,-0.92661,-0.969697,-1.00444,-0.634555,-0.885076,-1.885006,-1.093544,-0.810587,-0.214794,-0.153799,-1.217068,-0.536332,-1.209639,-0.571088,-0.217149,-1.601865,-0.726728,-1.099973,-1.414345,-0.890663,-0.937627,1.583918,-0.443129,-0.777302,-0.723675,-0.63404,-0.535376,-0.525523,-0.847186,-0.863123,-0.805039,0.12778,-0.707556,1.12932,-1.154038,0.125031,0.237378,0.280169,0.354621,0.470415,0.738064,0.794687,0.802601,1.013012,1.465704,1.372902,1.164348,0.898123,1.251626,0.3493,0.974388,0.891027,-0.836569,-0.97327,-0.952169,-0.921304,-0.800695,-0.747916,-0.788911,-1.025079,-0.941764,-1.067204,-0.980456,-1.037805,-1.088026,-1.015829,-1.039353,-1.02665,-1.026668,-1.035694,-0.799535,-0.989664,-1.013394,-0.96268,-0.899724,-0.990233,-0.90641,-0.949274,-0.776429,'\'(6.266667-10.533333]\''
-0.874934,-0.923604,-0.906079,-0.977274,-0.90658,-1.026223,-1.064798,-1.059504,-0.956201,-1.014478,-0.875035,-1.04414,-0.971265,-0.982305,-0.900469,-1.06534,-0.739627,-0.61854,-1.257843,-0.904976,-1.024289,-0.917272,-0.999196,'\'(14.9-27.8]\'',0.374266,0.466402,0.191278,0.853947,-0.118968,0.670756,-0.980089,-0.378949,0.421522,-1.126739,0.381319,0.318577,0.459564,-0.953273,-0.977587,-0.928049,-0.957085,-1.004907,-0.644059,-0.950522,-1.885006,-0.967068,-0.899763,-0.615031,-0.012386,-1.349252,-0.508772,-1.125149,-0.714128,-0.252213,-1.412918,-0.673219,-1.099124,-1.420921,-0.896728,-0.938309,1.329885,-0.442474,-0.774762,-0.714904,-0.633231,-0.535467,-0.525708,-0.848961,-0.863049,-0.80765,-0.146178,-0.705765,1.052348,-1.118689,0.216588,0.228547,0.315546,0.361076,0.44018,0.669993,0.725821,0.754118,0.98896,0.894629,0.96661,0.831802,0.655073,1.051046,0.33728,0.99455,0.812207,-0.847013,-0.96561,-0.945062,-0.921304,-0.796709,-0.747916,-0.807913,-1.020378,-0.941764,-1.060247,-0.978183,-1.031049,-1.081911,-1.013148,-1.035816,-1.022769,-1.021713,-1.030627,-0.79235,-0.982262,-1.009756,-0.958999,-0.893169,-0.986132,-0.905243,-0.956866,-0.773951,'\'(6.266667-10.533333]\''
-0.885954,-0.92407,-0.902332,-0.971575,-0.902568,-1.010723,-1.0395,-1.032954,-0.894126,-0.947817,-0.825436,-1.04077,-0.965698,-0.983283,-0.826084,-1.046357,-0.723169,-0.53979,-1.096745,-0.881561,-0.998332,-0.903347,-0.981474,'\'(14.9-27.8]\'',0.388001,0.177252,0.246778,0.860754,-0.046286,0.420593,-0.97223,-0.397177,0.422254,-1.142737,0.376403,0.284471,0.497212,-0.94427,-0.969673,-0.917257,-0.947881,-0.999766,-0.62704,-0.754184,-1.602741,-0.840591,-0.535191,0.289209,0.38155,-1.167498,-0.453651,-0.929766,-0.507515,0.308814,-1.432807,-0.52161,-1.05777,-1.372553,-0.895874,-0.937613,1.160529,-0.442207,-0.772725,-0.711549,-0.632596,-0.535194,-0.525523,-0.850182,-0.863062,-0.806505,-0.081508,-0.705695,1.048919,-1.113138,0.369183,0.419896,0.569613,0.648297,0.688105,0.802894,0.794687,0.780224,0.964908,1.253211,0.861274,0.612197,0.401455,0.740147,0.433123,1.02335,0.624373,-0.82565,-0.957951,-0.936534,-0.918303,-0.78475,-0.747916,-0.811985,-1.014502,-0.928951,-1.049117,-0.97591,-1.019226,-1.069682,-1.011361,-1.0311,-1.013714,-1.015519,-1.023637,-0.779093,-0.969238,-1.005833,-0.956546,-0.890984,-0.982031,-0.904207,-0.956154,-0.772966,'\'(6.266667-10.533333]\''
-0.87858,-0.914847,-0.89993,-0.958046,-0.899756,-0.995922,-1.033618,-1.030128,-0.880669,-0.92948,-0.818338,-1.044006,-0.943273,-0.967388,-0.787037,-1.032631,-0.710639,-0.558558,-0.986709,-0.896461,-0.985609,-0.898944,-0.970296,'\'(14.9-27.8]\'',0.286362,0.292688,0.201823,0.602075,0.007468,0.467352,-0.960142,-0.301112,0.452269,-1.113301,0.436208,0.350637,0.545758,-0.938352,-0.96088,-0.910332,-0.936405,-0.995092,-0.62505,-0.557846,-1.320475,-0.650877,-0.446015,-0.318559,0.735083,-0.908637,-0.517958,-0.998414,-0.571088,-0.065204,-1.383085,-0.52161,-1.055181,-1.379443,-0.897278,-0.936127,0.991166,-0.442125,-0.771379,-0.706781,-0.632827,-0.535558,-0.525892,-0.851076,-0.863005,-0.806182,-0.149648,-0.710976,1.327407,-1.185067,0.380281,0.499379,0.66931,0.790294,0.86649,0.935795,0.911759,0.821249,0.978652,1.983656,1.13966,0.80043,0.438441,0.740147,0.484812,1.039217,0.486733,-0.804288,-0.950291,-0.928005,-0.910799,-0.776777,-0.747916,-0.806556,-1.012151,-0.928951,-1.043552,-0.974205,-1.017537,-1.06051,-1.008679,-1.028742,-1.01242,-1.013041,-1.020065,-0.766476,-0.963552,-1.003828,-0.951638,-0.892077,-0.976562,-0.903328,-0.956043,-0.770923,'\'(6.266667-10.533333]\''
-0.876233,-0.911706,-0.89756,-0.955253,-0.89924,-0.976277,-1.012812,-1.006422,-0.844297,-0.901851,-0.778737,-1.036078,-0.925678,-0.956571,-0.708249,-1.009733,-0.704536,-0.424349,-0.790283,-0.86134,-0.960765,-0.897695,-0.968816,'\'(14.9-27.8]\'',0.382507,0.276997,0.226243,0.462525,0.102863,0.43579,-0.957775,-0.247907,0.461786,-1.096663,0.468977,0.370418,0.596285,-0.939391,-0.95789,-0.892886,-0.93578,-0.990418,-0.635218,-0.4924,-1.320475,-0.587639,-0.435523,-0.333383,0.341146,-0.770945,-0.343411,-0.813592,-0.364476,0.063365,-1.293583,-0.271902,-1.056249,-1.397727,-0.899595,-0.934218,0.991166,-0.441798,-0.769966,-0.705545,-0.632769,-0.535467,-0.525892,-0.851207,-0.862891,-0.805357,-0.166674,-0.711786,1.374069,-1.184555,0.408025,0.558256,0.662878,0.783839,0.881607,0.948761,0.922089,0.821249,0.985524,1.917252,1.094517,0.756509,0.385604,0.700031,0.509814,1.058359,0.426147,-0.847487,-0.944163,-0.92232,-0.907797,-0.756846,-0.747916,-0.792983,-1.00745,-0.925747,-1.032421,-0.971931,-1.01247,-1.048281,-1.005104,-1.024026,-1.005952,-1.008086,-1.015975,-0.751904,-0.962122,-0.999733,-0.949185,-0.889892,-0.972461,-0.903287,-0.956394,-0.768266,'\'(6.266667-10.533333]\''
-0.87155,-0.906947,-0.897624,-0.953825,-0.89749,-0.969608,-1.007884,-1.003077,-0.840566,-0.907725,-0.766576,-1.034185,-0.91771,-0.958098,-0.658026,-1.002436,-0.758566,-0.517196,-0.743452,-0.860807,-0.957256,-0.895666,-0.965824,'\'(14.9-27.8]\'',0.49788,0.316223,0.105807,0.348502,-0.010703,0.323567,-0.947927,-0.198643,0.496194,-1.087705,0.501747,0.372465,0.672572,-0.932718,-0.951559,-0.888839,-0.927286,-0.985744,-0.618419,-0.4924,-1.461608,-0.524401,-0.225697,-0.303736,0.785588,-0.815007,0.042431,-0.729102,-0.507515,0.250374,-1.258777,-0.111375,-1.063509,-1.389801,-0.903041,-0.932145,0.906488,-0.441859,-0.768906,-0.704603,-0.63248,-0.535467,-0.525708,-0.851341,-0.862477,-0.804726,-0.21302,-0.708748,1.194824,-1.114731,0.291498,0.428727,0.51494,0.567617,0.639729,0.819101,0.822234,0.787683,0.98896,1.412581,1.109564,0.838077,0.559966,0.915655,0.47231,1.0824,0.373993,-0.853184,-0.936504,-0.915213,-0.898793,-0.748873,-0.747916,-0.792983,-1.003924,-0.916137,-1.028247,-0.969658,-1.005714,-1.042166,-1.002423,-1.020489,-1.000777,-1.004369,-1.011152,-0.73787,-0.955293,-0.996554,-0.946731,-0.892077,-0.969727,-0.902847,-0.95657,-0.767339,'\'(6.266667-10.533333]\''
-0.871613,-0.904519,-0.890546,-0.955542,-0.896386,-0.967488,-1.007788,-1.004042,-0.831979,-0.907142,-0.751709,-1.035212,-0.913799,-0.956193,-0.645436,-1.000363,-0.783323,-0.493366,-0.747133,-0.809189,-0.908358,-0.896196,-0.962997,'\'(14.9-27.8]\'',0.162747,0.263548,0.161307,0.183424,0.138447,0.227008,-0.943351,-0.17007,0.497658,-1.076826,0.518542,0.395657,0.679507,-0.929979,-0.946283,-0.879756,-0.923451,-0.983875,-0.617756,-0.4924,-1.320475,-0.524401,-0.183732,-0.096205,0.603771,-0.567161,-0.187237,-0.692137,-0.475729,0.33219,-1.228944,-0.120293,-1.058728,-1.389891,-0.904457,-0.932431,0.991166,-0.441572,-0.767375,-0.702661,-0.631671,-0.535467,-0.525616,-0.851458,-0.862183,-0.80365,-0.21359,-0.70758,1.12402,-1.080647,0.125031,0.260929,0.36057,0.422392,0.50065,0.763996,0.791244,0.757847,0.968344,1.598512,1.433094,1.158073,0.834718,1.186438,0.464858,1.084469,0.357523,-0.906352,-0.93344,-0.91237,-0.895791,-0.758174,-0.747916,-0.795698,-0.999223,-0.90973,-1.018508,-0.970227,-1.000647,-1.032994,-0.997061,-1.015773,-0.996896,-0.999414,-1.00578,-0.724512,-0.951068,-0.991742,-0.943051,-0.885522,-0.965626,-0.902284,-0.956263,-0.765343,'\'(6.266667-10.533333]\''
-0.870141,-0.904053,-0.881546,-0.943158,-0.892217,-0.946521,-0.988858,-0.984152,-0.808069,-0.881544,-0.732728,-1.025355,-0.891963,-0.946345,-0.600127,-0.980152,-0.781053,-0.45573,-0.579936,-0.806529,-0.899981,-0.891232,-0.956125,'\'(14.9-27.8]\'',0.223181,0.090955,0.205153,0.418277,0.093778,0.103797,-0.932872,-0.091247,0.538654,-1.053149,0.565648,0.446134,0.720128,-0.924565,-0.940127,-0.867435,-0.911179,-0.977331,-0.608252,-0.296061,-1.179342,-0.334687,-0.286022,-0.185147,0.533064,-0.622238,-0.334224,-0.742303,-0.507515,0.33219,-1.218999,-0.289738,-1.053573,-1.409437,-0.907118,-0.932172,0.82181,-0.441511,-0.76581,-0.698599,-0.630516,-0.535103,-0.525246,-0.850544,-0.86178,-0.801144,-0.162108,-0.708647,1.169661,-1.0832,0.119482,0.290367,0.347706,0.438528,0.533908,0.75103,0.774027,0.761577,0.968344,1.771163,1.418046,1.13925,0.850569,1.196467,0.44875,1.115417,0.305957,-0.906352,-0.931908,-0.91237,-0.892789,-0.763489,-0.747916,-0.801127,-0.995697,-0.903324,-1.015726,-0.967385,-0.997269,-1.02688,-0.994379,-1.012236,-0.993015,-0.995698,-1.00114,-0.699516,-0.947796,-0.988134,-0.93937,-0.882245,-0.961524,-0.902195,-0.955774,-0.762701,'\'(6.266667-10.533333]\''
-0.863533,-0.897969,-0.87213,-0.913903,-0.885456,-0.925722,-0.969708,-0.967008,-0.778198,-0.858486,-0.700627,-1.019986,-0.870642,-0.93081,-0.586767,-0.96349,-0.683559,-0.477884,-0.447712,-0.772471,-0.846957,-0.87484,-0.931959,'\'(14.9-27.8]\'',0.205326,0.049488,0.119127,0.163002,0.089992,0.089535,-0.917533,0.005803,0.548903,-1.023073,0.625862,0.51571,0.764711,-0.915468,-0.91955,-0.856104,-0.89297,-0.974527,-0.603168,-0.165169,-1.038209,-0.271449,-0.165372,-0.259265,0.492661,-0.512084,-0.012689,-0.467711,-0.555195,0.320502,-1.094692,0.450469,-1.034382,-1.380479,-0.909216,-0.929172,0.567777,-0.441245,-0.76406,-0.691477,-0.631209,-0.534557,-0.524693,-0.851422,-0.861239,-0.799686,-0.176129,-0.702291,0.865919,-0.95024,0.027925,0.078411,0.164392,0.209397,0.295053,0.653785,0.684502,0.690716,0.916805,1.160245,1.440618,1.183171,0.924541,1.286728,0.424148,1.105173,0.318702,-0.941481,-0.93344,-0.915213,-0.889788,-0.776777,-0.747916,-0.803841,-0.993346,-0.893714,-1.010161,-0.965112,-0.99558,-1.023822,-0.989017,-1.008699,-0.990427,-0.99322,-0.997935,-0.686056,-0.945985,-0.985298,-0.934463,-0.881153,-0.956056,-0.902174,-0.956678,-0.762452,'\'(6.266667-10.533333]\''
-0.857652,-0.890634,-0.872931,-0.908586,-0.887411,-0.909715,-0.95954,-0.958664,-0.76653,-0.839243,-0.697793,-1.015946,-0.849967,-0.911847,-0.534772,-0.942168,-0.767749,-0.332672,-0.273582,-0.693182,-0.757412,-0.872841,-0.923016,'\'(14.9-27.8]\'',0.274,-0.145521,0.011456,-0.085466,0.053651,-0.017778,-0.907654,0.052111,0.536458,-1.023713,0.665596,0.562776,0.792452,-0.908574,-0.902843,-0.840366,-0.875017,-0.97032,-0.600516,-0.165169,-0.897076,-0.208211,0.283131,0.392974,1.260332,-0.159592,-0.132116,-0.480912,-0.475729,0.717897,-1.039997,-0.04003,-1.009993,-1.360123,-0.908851,-0.926362,0.567777,-0.440753,-0.761754,-0.678998,-0.63196,-0.535831,-0.525985,-0.852169,-0.860531,-0.798514,-0.179316,-0.699378,0.744754,-0.885874,0.00018,0.06958,0.167608,0.22876,0.325288,0.650544,0.701718,0.672069,0.858393,1.425862,1.508333,1.277287,0.950959,1.251626,0.397703,1.075052,0.313996,-1.003195,-0.934972,-0.919477,-0.886786,-0.788736,-0.718671,-0.805199,-0.992171,-0.884103,-1.005987,-0.96227,-0.997269,-1.014651,-0.986335,-1.006341,-0.989134,-0.991981,-0.996837,-0.678162,-0.950686,-0.982692,-0.929555,-0.877876,-0.950588,-0.902003,-0.957264,-0.76191,'\'(6.266667-10.533333]\''
-0.854984,-0.88612,-0.868158,-0.899393,-0.885582,-0.90648,-0.959224,-0.957569,-0.769598,-0.840112,-0.702544,-1.012212,-0.844164,-0.907108,-0.531527,-0.937685,-0.790462,-0.316712,-0.259625,-0.680942,-0.73278,-0.866066,-0.912725,'\'(14.9-27.8]\'',0.039133,-0.12871,-0.031834,-0.093975,-0.001617,0.039503,-0.900332,0.094971,0.566473,-1.024993,0.700823,0.611889,0.806322,-0.904009,-0.897039,-0.831822,-0.871438,-0.965647,-0.599189,-0.361507,-0.897076,-0.334687,-0.02374,0.333679,1.098717,-0.754422,-0.031063,-0.54956,-0.443942,0.659456,-1.139443,-0.066784,-0.988059,-1.368004,-0.906031,-0.923484,0.567777,-0.440364,-0.760122,-0.670757,-0.631556,-0.536194,-0.526354,-0.855331,-0.85958,-0.796978,-0.148723,-0.698988,0.731738,-0.870935,0.019602,0.104906,0.2062,0.306213,0.415992,0.66351,0.681058,0.66088,0.817162,1.731321,1.485761,1.19572,0.898123,1.156351,0.394177,1.064394,0.150475,-1.039273,-0.93344,-0.919477,-0.883785,-0.796709,-0.716318,-0.797055,-0.990996,-0.877697,-0.99903,-0.959429,-0.998958,-1.005479,-0.983654,-1.002804,-0.98784,-0.991981,-0.995554,-0.676779,-0.953418,-0.980172,-0.925875,-0.872414,-0.945119,-0.901447,-0.957633,-0.760047,'\'(6.266667-10.533333]\''
-0.851051,-0.880036,-0.861273,-0.893531,-0.880125,-0.898201,-0.95331,-0.95356,-0.762973,-0.842109,-0.688683,-1.007599,-0.834087,-0.898517,-0.515046,-0.929032,-0.751074,-0.297444,-0.207496,-0.689989,-0.755659,-0.849486,-0.898555,'\'(14.9-27.8]\'',0.464916,-0.110778,-0.160041,-0.400306,-0.04023,0.085093,-0.89263,0.129455,0.552564,-1.025633,0.729906,0.648724,0.823164,-0.898532,-0.883849,-0.818603,-0.856439,-0.960038,-0.599632,-0.557846,-1.602741,-0.714115,-0.091933,-0.125852,1.219928,-0.75993,-0.086183,-0.634051,-0.507515,0.367255,-1.179221,-0.022194,-0.989547,-1.330444,-0.90425,-0.919939,0.567777,-0.439954,-0.758305,-0.661398,-0.630516,-0.535922,-0.525985,-0.857819,-0.858501,-0.795245,-0.123996,-0.698365,0.726683,-0.860163,0.014053,0.057805,0.161176,0.222306,0.328312,0.585714,0.622522,0.616126,0.755315,1.372739,1.320235,1.101603,0.845286,1.076119,0.365328,1.050432,-0.038732,-1.050192,-0.928844,-0.913792,-0.880783,-0.764818,-0.713965,-0.767195,-0.98982,-0.874493,-0.996248,-0.957724,-0.997269,-0.996307,-0.981867,-1.000446,-0.985253,-0.990742,-0.993631,-0.658496,-0.954816,-0.978139,-0.923421,-0.864767,-0.945119,-0.900362,-0.9571,-0.757168,'\'(6.266667-10.533333]\''
-0.849876,-0.876552,-0.868223,-0.894891,-0.882412,-0.89155,-0.941859,-0.942783,-0.743797,-0.837273,-0.658604,-1.003168,-0.832253,-0.892972,-0.521845,-0.921649,-0.707363,-0.252201,-0.168595,-0.653271,-0.681643,-0.846333,-0.886127,'\'(14.9-27.8]\'',0.268506,-0.06819,-0.212766,-0.238631,-0.184079,0.184925,-0.891999,0.098912,0.556224,-1.04803,0.718437,0.668505,0.766692,-0.895951,-0.879452,-0.811138,-0.849991,-0.955831,-0.602726,-0.230615,-0.755943,-0.271449,0.075927,-0.318559,1.270433,-0.743407,0.5477,-0.470351,-0.428049,0.472447,-0.985302,0.05807,-0.988566,-1.347243,-0.904578,-0.916461,0.652455,-0.439708,-0.756403,-0.655511,-0.630227,-0.535922,-0.526169,-0.856636,-0.857894,-0.794597,-0.14,-0.69891,0.769047,-0.881567,0.144452,0.160839,0.270521,0.364303,0.473438,0.695925,0.739594,0.683257,0.727827,1.386019,1.222423,1.020035,0.692058,0.800321,0.33143,1.049396,-0.114022,-1.066332,-0.927312,-0.913792,-0.876281,-0.768804,-0.713965,-0.746836,-0.986294,-0.864883,-0.992074,-0.95545,-0.992202,-0.984077,-0.980973,-0.998088,-0.982665,-0.987026,-0.989572,-0.643484,-0.949956,-0.975303,-0.917287,-0.856028,-0.936917,-0.899511,-0.956658,-0.757565,'\'(6.266667-10.533333]\''
-0.848362,-0.875743,-0.857205,-0.879775,-0.876592,-0.889848,-0.944417,-0.945264,-0.750813,-0.843054,-0.665801,-1.00067,-0.826656,-0.888811,-0.536881,-0.920094,-0.726445,-0.159371,-0.185503,-0.643692,-0.719793,-0.845146,-0.893722,'\'(14.9-27.8]\'',0.257518,0.191821,-0.09233,-0.097379,-0.082627,0.194978,-0.889979,0.095956,0.57965,-1.058908,0.721714,0.676008,0.76372,-0.893748,-0.877693,-0.809789,-0.851127,-0.951157,-0.604494,-0.296061,-0.897076,-0.334687,0.170349,-0.081382,1.017909,-0.346853,0.299659,-0.486193,-0.618768,0.589328,-1.114581,0.254269,-0.978949,-1.345171,-0.903465,-0.910924,0.567777,-0.439647,-0.755478,-0.655747,-0.629765,-0.536104,-0.526354,-0.855808,-0.857517,-0.79317,-0.126253,-0.698443,0.770061,-0.886807,0.197167,0.275648,0.338058,0.412711,0.50972,0.702408,0.725821,0.698175,0.738135,1.293054,1.094517,0.875723,0.612803,0.720089,0.317887,1.051247,-0.200097,-1.097663,-0.92578,-0.91237,-0.868777,-0.747544,-0.713965,-0.735978,-0.982768,-0.855273,-0.985117,-0.953177,-0.988824,-0.974906,-0.978292,-0.994551,-0.978784,-0.984548,-0.985817,-0.638256,-0.945509,-0.972239,-0.914834,-0.860397,-0.932815,-0.898158,-0.955613,-0.757079,'\'(6.266667-10.533333]\''
-0.842044,-0.871842,-0.854387,-0.878907,-0.874458,-0.880695,-0.930349,-0.936732,-0.734284,-0.835488,-0.643099,-0.996411,-0.822549,-0.881631,-0.528697,-0.909094,-0.716661,-0.199963,-0.115222,-0.658592,-0.757485,-0.823352,-0.876296,'\'(14.9-27.8]\'',0.502001,0.079747,-0.10121,0.050681,-0.160609,0.181184,-0.884582,0.098912,0.635288,-1.062108,0.722943,0.675326,0.767683,-0.888554,-0.870307,-0.804663,-0.8434,-0.946951,-0.597863,-0.296061,-0.755943,-0.271449,-0.076196,-0.392677,0.876496,-0.506576,0.024058,-0.335695,-0.316796,0.507511,-1.02508,0.495059,-0.961345,-1.263117,-0.899912,-0.907269,0.652455,-0.439442,-0.754014,-0.652627,-0.629072,-0.53574,-0.525892,-0.855758,-0.856964,-0.791756,-0.150477,-0.696574,0.720665,-0.872308,0.150001,0.190277,0.280169,0.335258,0.412969,0.66351,0.715491,0.675798,0.714083,1.093841,1.132136,0.963566,0.670924,0.770234,0.329587,1.006185,-0.158922,-1.10431,-0.922716,-0.909527,-0.864275,-0.752859,-0.713965,-0.704761,-0.979243,-0.84246,-0.980943,-0.950336,-0.983757,-0.962676,-0.974717,-0.991014,-0.974903,-0.980832,-0.981452,-0.621659,-0.941442,-0.968859,-0.908699,-0.850566,-0.927347,-0.896929,-0.954784,-0.757862,'\'(6.266667-10.533333]\''
-0.83912,-0.867427,-0.852657,-0.874603,-0.876014,-0.86954,-0.924417,-0.927507,-0.729512,-0.813875,-0.655147,-0.986649,-0.807071,-0.872867,-0.494149,-0.899521,-0.712275,-0.195055,-0.059483,-0.655931,-0.759858,-0.818419,-0.872022,'\'(14.9-27.8]\'',0.403109,0.238892,-0.0668,0.105139,-0.137896,0.170429,-0.879627,0.123544,0.426647,-1.058908,0.752435,0.733307,0.754804,-0.885185,-0.8638,-0.803134,-0.83377,-0.944614,-0.594769,-0.361507,-0.897076,-0.334687,0.314605,-0.19997,1.391644,-0.379899,0.593634,-0.166715,-0.126077,0.682832,-0.990274,0.762604,-0.965575,-1.314457,-0.901066,-0.904869,0.652455,-0.439073,-0.751928,-0.64574,-0.629129,-0.535922,-0.526077,-0.854951,-0.856308,-0.790906,-0.176093,-0.697275,0.773967,-0.906767,0.144452,0.137288,0.251225,0.293304,0.352499,0.605163,0.694832,0.634774,0.652236,0.854787,1.011753,0.938468,0.62337,0.690002,0.326622,0.966419,-0.163236,-1.041647,-0.919652,-0.908106,-0.861273,-0.768804,-0.713965,-0.699332,-0.975717,-0.826443,-0.97677,-0.948631,-0.97869,-0.950447,-0.972035,-0.987477,-0.971022,-0.977115,-0.976691,-0.616194,-0.936773,-0.964535,-0.902565,-0.846196,-0.920512,-0.896112,-0.954163,-0.756545,'\'(6.266667-10.533333]\''
-0.838224,-0.865562,-0.849006,-0.870984,-0.875987,-0.864177,-0.917605,-0.928341,-0.727073,-0.822894,-0.64213,-0.988363,-0.803327,-0.874566,-0.479235,-0.895297,-0.710926,-0.219023,-0.054612,-0.667639,-0.746941,-0.824289,-0.873666,'\'(14.9-27.8]\'',0.426458,0.245617,-0.11231,0.094928,-0.195436,0.259272,-0.873693,0.174778,0.657982,-1.057629,0.780699,0.744903,0.806322,-0.882541,-0.855534,-0.791713,-0.827464,-0.933397,-0.602726,-0.230615,-0.897076,-0.334687,0.760485,-0.111029,1.987599,-0.060454,1.02541,0.287419,-0.18965,1.571126,-0.622325,0.994476,-0.962094,-1.289327,-0.899327,-0.899659,0.652455,-0.438951,-0.749891,-0.639265,-0.629072,-0.536104,-0.526261,-0.853246,-0.855729,-0.789295,-0.161143,-0.695561,0.731244,-0.897709,0.133354,0.128456,0.231929,0.261032,0.304124,0.546816,0.632852,0.608667,0.569773,0.695417,0.906418,0.850626,0.607519,0.589712,0.320211,0.934084,-0.27225,-1.090543,-0.916588,-0.906685,-0.852269,-0.771462,-0.655812,-0.692546,-0.972191,-0.816833,-0.968422,-0.946357,-0.973623,-0.941275,-0.96846,-0.982761,-0.967141,-0.973399,-0.971807,-0.591366,-0.932135,-0.96107,-0.897658,-0.842919,-0.915043,-0.896044,-0.954117,-0.75563,'\'(6.266667-10.533333]\''
-0.838555,-0.864605,-0.847469,-0.885778,-0.871671,-0.864588,-0.908895,-0.919338,-0.707986,-0.803519,-0.626035,-0.987479,-0.812221,-0.88231,-0.476248,-0.896905,-0.648214,-0.214203,-0.104838,-0.647949,-0.740299,-0.819574,-0.870345,'\'(14.9-27.8]\'',0.474531,0.196304,-0.11453,0.042171,-0.174994,0.266286,-0.873094,0.123051,0.660178,-1.050589,0.732774,0.668505,0.801368,-0.878638,-0.855006,-0.786587,-0.824595,-0.926386,-0.590127,-0.361507,-0.755943,-0.461163,0.521808,-0.111029,1.452249,-0.379899,1.209144,0.139561,-0.126077,1.255548,-0.860994,1.128248,-0.960949,-1.263387,-0.895075,-0.89689,0.906488,-0.438459,-0.747502,-0.63073,-0.628494,-0.53574,-0.525892,-0.851682,-0.854996,-0.787668,-0.135014,-0.698365,0.901819,-0.971193,0.069542,0.060748,0.180472,0.183579,0.201326,0.423639,0.570873,0.58629,0.531977,0.549328,0.793559,0.881998,0.697342,0.649886,0.298734,0.971996,-0.447732,-1.101936,-0.911993,-0.900999,-0.850768,-0.776777,-0.655812,-0.685759,-0.968665,-0.813629,-0.960074,-0.945221,-0.968556,-0.932103,-0.965779,-0.979224,-0.961967,-0.969682,-0.967228,-0.564514,-0.92702,-0.958292,-0.896431,-0.835272,-0.91641,-0.889734,-0.951528,-0.754456,'\'(6.266667-10.533333]\''
-0.829473,-0.855112,-0.841768,-0.865178,-0.870457,-0.839222,-0.87988,-0.884904,-0.660494,-0.754367,-0.586803,-0.967517,-0.791499,-0.871259,-0.466413,-0.876786,-0.49187,-0.149626,0.044685,-0.611763,-0.743601,-0.802402,-0.858509,'\'(14.9-27.8]\'',0.311085,0.380105,-0.08012,0.067699,-0.13941,0.175105,-0.86271,0.2068,0.673356,-1.029472,0.787663,0.759909,0.801368,-0.873633,-0.850961,-0.781641,-0.821726,-0.919842,-0.580181,-0.296061,-0.897076,-0.397925,0.553282,0.437445,0.957304,-0.286269,1.273451,0.419435,-0.078397,1.278924,-0.72177,1.779274,-0.943124,-1.320942,-0.892581,-0.893917,0.737132,-0.438131,-0.745281,-0.621312,-0.627512,-0.535376,-0.525523,-0.849874,-0.854311,-0.785843,-0.159863,-0.69891,0.982965,-1.000317,0.050121,0.025422,0.125799,0.12549,0.137833,0.349085,0.529553,0.560184,0.511361,0.363396,0.673176,0.850626,0.697342,0.6549,0.294727,1.011378,-0.446947,-1.039273,-0.904333,-0.893892,-0.844765,-0.771462,-0.655812,-0.688474,-0.966314,-0.804019,-0.954509,-0.941243,-0.966867,-0.929046,-0.963098,-0.975687,-0.958086,-0.967205,-0.96323,-0.558881,-0.922605,-0.954912,-0.890297,-0.833088,-0.908208,-0.889631,-0.950978,-0.751945,'\'(6.266667-10.533333]\''
-0.826271,-0.851211,-0.828636,-0.832548,-0.862113,-0.821249,-0.861298,-0.866342,-0.631439,-0.714043,-0.57245,-0.95745,-0.774976,-0.862241,-0.444778,-0.860341,-0.472931,-0.095574,0.158686,-0.538859,-0.679084,-0.799467,-0.852952,'\'(14.9-27.8]\'',0.441567,0.217598,-0.068465,0.008135,-0.097012,0.101459,-0.856145,0.233402,0.704835,-1.023073,0.802819,0.779691,0.809294,-0.868785,-0.841816,-0.774177,-0.816073,-0.912364,-0.579738,-0.426954,-0.755943,-0.524401,0.980802,0.096502,1.775479,0.033177,1.705227,0.366628,-0.014824,1.103603,-0.657131,1.583074,-0.909294,-1.26735,-0.888041,-0.891462,0.398413,-0.437599,-0.742959,-0.613307,-0.626356,-0.534921,-0.52497,-0.848207,-0.853613,-0.782953,-0.115255,-0.696184,0.92337,-0.977816,-0.033113,-0.06878,-0.002842,0.006083,0.016894,0.212942,0.384935,0.459488,0.473566,0.230588,0.582889,0.775332,0.713193,0.750176,0.301218,1.006786,-0.367932,-0.885465,-0.896673,-0.886785,-0.838762,-0.756846,-0.655812,-0.704761,-0.962788,-0.794409,-0.950335,-0.939538,-0.9618,-0.916817,-0.960417,-0.97215,-0.955498,-0.963488,-0.958285,-0.548795,-0.918475,-0.950416,-0.88539,-0.831995,-0.902739,-0.895666,-0.952454,-0.748497,'\'(6.266667-10.533333]\''
-0.831355,-0.855627,-0.831519,-0.840976,-0.864248,-0.832922,-0.8694,-0.870746,-0.642436,-0.721877,-0.584904,-0.956257,-0.789389,-0.869194,-0.437118,-0.866674,-0.504068,-0.032839,0.0625,-0.487774,-0.5957,-0.803838,-0.848842,'\'(14.9-27.8]\'',0.404482,0.107766,-0.165591,-0.080361,-0.190136,0.23262,-0.848507,0.262468,0.746563,-1.040991,0.837227,0.81789,0.837035,-0.863025,-0.827571,-0.761856,-0.800591,-0.903951,-0.583938,-0.885076,-0.61481,-0.840591,0.25428,-0.496443,-0.244708,-0.396423,2.081882,0.247814,-0.555195,0.811401,-0.681992,1.752519,-0.924738,-1.275006,-0.886157,-0.887357,0.483099,-0.437169,-0.740738,-0.606008,-0.626703,-0.534103,-0.524231,-0.84754,-0.852975,-0.796033,-0.591306,-0.696885,0.992267,-1.014772,-0.044211,-0.051117,0.083991,0.109354,0.137833,0.368534,0.502007,0.452029,0.459822,0.814944,0.974134,1.013761,0.723761,0.750176,0.335517,0.970643,-0.301268,-0.923442,-0.895141,-0.883942,-0.83576,-0.759503,-0.655812,-0.699332,-0.959262,-0.781595,-0.943379,-0.937264,-0.956733,-0.904587,-0.956842,-0.967434,-0.950324,-0.959772,-0.953126,-0.525957,-0.913266,-0.94675,-0.879255,-0.822164,-0.894537,-0.896366,-0.952263,-0.748582,'\'(6.266667-10.533333]\''
-0.827975,-0.851432,-0.825946,-0.823521,-0.857361,-0.806268,-0.839495,-0.841555,-0.604891,-0.701675,-0.536236,-0.940225,-0.767059,-0.858607,-0.355321,-0.838075,-0.551424,0.096699,0.284652,-0.486709,-0.623806,-0.785822,-0.835231,'\'(-inf-14.9]\'',0.570675,0.145871,-0.180021,-0.114397,-0.194679,0.461507,-0.839101,0.340305,0.770721,-0.967401,0.853612,0.826757,0.863785,-0.858618,-0.818953,-0.753223,-0.792154,-0.897875,-0.583938,-0.165169,-0.61481,-0.334687,1.345375,-0.348206,1.815883,0.611484,2.25643,0.496004,-0.491622,1.103603,-0.428405,1.877373,-0.91912,-1.283427,-0.885805,-0.883402,0.398413,-0.436513,-0.738651,-0.605537,-0.627801,-0.535649,-0.525708,-0.845532,-0.851823,-0.793317,-0.565572,-0.699066,1.128841,-1.078036,-0.02479,-0.039342,0.100071,0.131944,0.192255,0.449571,0.563986,0.481865,0.473566,0.961033,1.109564,1.08278,0.729044,0.735133,0.358356,0.910919,-0.305386,-0.839892,-0.884418,-0.873993,-0.831258,-0.7409,-0.655812,-0.670829,-0.952211,-0.768782,-0.937813,-0.93556,-0.94491,-0.892358,-0.95416,-0.963897,-0.942562,-0.952339,-0.946136,-0.527138,-0.899098,-0.942368,-0.875575,-0.822164,-0.89317,-0.895982,-0.952415,-0.747907,'\'(6.266667-10.533333]\''
-0.823337,-0.845986,-0.825273,-0.80778,-0.854832,-0.784802,-0.827934,-0.833726,-0.600947,-0.658088,-0.569924,-0.929986,-0.737484,-0.839381,-0.307841,-0.815195,-0.710263,0.000373,0.452364,-0.435623,-0.56152,-0.775518,-0.819909,'\'(-inf-14.9]\'',0.540459,0.115611,-0.244956,-0.242035,-0.226477,0.038334,-0.826382,0.435877,0.861499,-0.913648,0.893755,0.883373,0.878646,-0.852039,-0.805411,-0.738474,-0.775735,-0.88619,-0.585264,-0.230615,-0.61481,-0.271449,1.660114,0.763564,2.179517,0.875853,1.898148,0.760035,0.652693,1.594502,-0.398572,1.69901,-0.88454,-1.273835,-0.884085,-0.879474,0.229058,-0.436022,-0.736817,-0.600651,-0.627281,-0.535922,-0.526077,-0.843376,-0.850687,-0.790222,-0.517733,-0.699378,1.183873,-1.102986,-0.022015,-0.042286,0.077559,0.12549,0.201326,0.481986,0.588089,0.504242,0.473566,0.987595,1.17728,1.120427,0.755463,0.730118,0.382076,0.863423,-0.291465,-0.728808,-0.876758,-0.865464,-0.822253,-0.728942,-0.655812,-0.65047,-0.948685,-0.771985,-0.930857,-0.93215,-0.941532,-0.880129,-0.950585,-0.96036,-0.938681,-0.948622,-0.941619,-0.522246,-0.895381,-0.938015,-0.871894,-0.821071,-0.887701,-0.895192,-0.951874,-0.745955,'\'(6.266667-10.533333]\''
-0.818803,-0.840123,-0.823864,-0.809374,-0.850048,-0.767922,-0.80804,-0.817478,-0.581138,-0.643208,-0.548204,-0.920604,-0.724221,-0.82999,-0.291822,-0.797767,-0.733646,-0.005656,0.568836,-0.386666,-0.476022,-0.768805,-0.804686,'\'(-inf-14.9]\'',0.570675,-0.12983,-0.312112,-0.374778,-0.259033,0.071767,-0.815745,0.502384,0.899566,-0.884851,0.927753,0.920208,0.907377,-0.84568,-0.793804,-0.725704,-0.765509,-0.87731,-0.579738,-0.165169,-0.61481,-0.208211,1.211611,0.274385,1.977498,0.550899,1.356131,0.760035,0.096429,1.886704,-0.234486,1.493893,-0.889663,-1.253434,-0.880315,-0.874633,0.313735,-0.435591,-0.734949,-0.59759,-0.626183,-0.535285,-0.525431,-0.841966,-0.849318,-0.787985,-0.505104,-0.700585,1.291291,-1.140621,-0.010917,-0.042286,0.058263,0.099672,0.183185,0.436605,0.5571,0.481865,0.456386,0.854787,1.041849,1.038859,0.702626,0.684988,0.362763,0.813711,-0.288328,-0.727859,-0.872162,-0.8612,-0.814749,-0.706352,-0.655812,-0.643684,-0.943984,-0.768782,-0.926683,-0.929308,-0.933087,-0.870957,-0.94701,-0.956823,-0.933506,-0.943667,-0.936368,-0.518873,-0.888234,-0.933748,-0.86576,-0.818886,-0.880866,-0.894259,-0.951171,-0.744729,'\'(6.266667-10.533333]\''
-0.816164,-0.833965,-0.821078,-0.808543,-0.85142,-0.754261,-0.794233,-0.806272,-0.58107,-0.635791,-0.554995,-0.907054,-0.711369,-0.823589,-0.249299,-0.784814,-0.71484,-0.050431,0.643171,-0.335048,-0.404339,-0.758346,-0.788806,'\'(-inf-14.9]\'',0.212193,0.067419,-0.316552,-0.301599,-0.297645,0.131853,-0.804383,0.55756,0.925189,-0.868214,0.961752,0.967274,0.921247,-0.837873,-0.781317,-0.713203,-0.75264,-0.870767,-0.567139,-0.099723,-0.332544,-0.144973,1.418814,0.659799,2.159315,0.694099,1.438812,0.781158,0.160002,1.758135,-0.189736,1.547402,-0.885323,-1.246318,-0.877192,-0.871237,0.398413,-0.435346,-0.733368,-0.592292,-0.625952,-0.535376,-0.525616,-0.84013,-0.847904,-0.785627,-0.472922,-0.700811,1.352693,-1.157055,0.161099,0.10785,0.193336,0.22876,0.304124,0.485227,0.588089,0.485594,0.43577,0.562609,0.688224,0.706314,0.38032,0.344001,0.357074,0.835689,-0.289308,-0.741625,-0.866035,-0.854093,-0.807245,-0.715654,-0.655812,-0.627397,-0.941633,-0.752765,-0.925292,-0.926467,-0.929709,-0.864842,-0.945223,-0.954465,-0.929625,-0.94119,-0.931759,-0.508348,-0.881976,-0.930426,-0.86208,-0.818886,-0.875397,-0.892625,-0.9499,-0.745345,'\'(6.266667-10.533333]\''
-0.814537,-0.830212,-0.821462,-0.796669,-0.849764,-0.740741,-0.77431,-0.785584,-0.560241,-0.602863,-0.548175,-0.891823,-0.704429,-0.816799,-0.248793,-0.770336,-0.642082,-0.112947,0.730041,-0.317487,-0.438085,-0.744982,-0.782066,'\'(-inf-14.9]\'',0.739615,-0.035688,-0.322102,-0.245439,-0.3302,0.04301,-0.791758,0.620125,1.005717,-0.847736,0.99657,1.006155,0.948988,-0.82928,-0.76883,-0.698005,-0.739886,-0.863756,-0.550562,-0.165169,-0.332544,-0.144973,1.214233,0.437445,2.068407,0.490315,1.282638,1.002944,1.081811,1.839951,-0.115151,1.583074,-0.862222,-1.187727,-0.870957,-0.868305,0.398413,-0.435018,-0.731887,-0.589585,-0.62549,-0.535649,-0.525892,-0.837934,-0.846735,-0.783187,-0.435982,-0.700398,1.382372,-1.164738,0.172196,0.154951,0.212633,0.231987,0.29203,0.426881,0.52611,0.448299,0.401411,0.456362,0.522697,0.568276,0.306349,0.273798,0.333193,0.790474,-0.288132,-0.698426,-0.862971,-0.854093,-0.807245,-0.743558,-0.655812,-0.645041,-0.938107,-0.739952,-0.925292,-0.923625,-0.924642,-0.861785,-0.941648,-0.950928,-0.925744,-0.937473,-0.926631,-0.499577,-0.875972,-0.926273,-0.855946,-0.813424,-0.868562,-0.891464,-0.948583,-0.744902,'\'(6.266667-10.533333]\''
-0.808647,-0.825698,-0.813263,-0.793054,-0.846168,-0.738332,-0.769015,-0.780237,-0.554688,-0.601602,-0.539414,-0.887596,-0.704793,-0.820706,-0.234298,-0.77029,-0.56936,-0.119108,0.685877,-0.266933,-0.331619,-0.750602,-0.777956,'\'(-inf-14.9]\'',0.35641,-0.055862,-0.328207,-0.173962,-0.370327,0.043711,-0.780837,0.649683,0.832216,-0.835578,1.024014,1.053221,0.947007,-0.820277,-0.75775,-0.681817,-0.731619,-0.856278,-0.530227,-0.230615,-0.473677,-0.208211,1.646999,0.704269,1.947195,0.925422,2.017575,0.831323,-0.094291,1.816575,-0.115151,1.681174,-0.867476,-1.231457,-0.866805,-0.865973,0.398413,-0.434731,-0.730389,-0.586818,-0.624161,-0.53483,-0.525154,-0.83592,-0.845409,-0.780849,-0.427002,-0.699689,1.38825,-1.16494,0.18052,0.146119,0.267305,0.293304,0.334359,0.452813,0.543326,0.44457,0.387667,0.602451,0.560317,0.580825,0.285214,0.238697,0.269885,0.711265,-0.281269,-0.681811,-0.859907,-0.849829,-0.804244,-0.754188,-0.655812,-0.645041,-0.934581,-0.720731,-0.926683,-0.92192,-0.921264,-0.858728,-0.937179,-0.946212,-0.923157,-0.933757,-0.92187,-0.484431,-0.872859,-0.921948,-0.851038,-0.812332,-0.863094,-0.889068,-0.946978,-0.746126,'\'(6.266667-10.533333]\''
-0.804466,-0.822386,-0.81384,-0.790854,-0.846441,-0.736692,-0.762862,-0.776432,-0.549219,-0.599876,-0.53123,-0.885356,-0.707375,-0.818701,-0.225437,-0.761547,-0.593207,-0.146202,0.720014,-0.221169,-0.317406,-0.736458,-0.766219,'\'(-inf-14.9]\'',0.407229,0.108887,-0.367612,-0.167154,-0.42711,0.071065,-0.773231,0.658551,0.723137,-0.826619,1.030978,1.063453,0.948988,-0.813257,-0.746846,-0.666709,-0.720228,-0.847397,-0.523817,-0.230615,-0.332544,-0.208211,1.547332,0.733917,1.654268,1.074129,1.66848,1.076873,0.080535,2.21397,0.093685,1.734683,-0.859093,-1.219072,-0.861808,-0.862059,0.398413,-0.434301,-0.728656,-0.582757,-0.624103,-0.534921,-0.525985,-0.83307,-0.843916,-0.778678,-0.410391,-0.701598,1.526887,-1.201908,0.313694,0.255041,0.363786,0.432074,0.464368,0.514401,0.56743,0.459488,0.370487,0.536047,0.342123,0.323573,0.052731,-0.027072,0.268202,0.729233,-0.247741,-0.6163,-0.853779,-0.845565,-0.799742,-0.764818,-0.623878,-0.646399,-0.931055,-0.717528,-0.928074,-0.919647,-0.917886,-0.85567,-0.934498,-0.943854,-0.920569,-0.931279,-0.917566,-0.473839,-0.869682,-0.917996,-0.848585,-0.810147,-0.858992,-0.887984,-0.945643,-0.746211,'\'(6.266667-10.533333]\''
-0.797795,-0.812819,-0.810669,-0.785956,-0.845053,-0.729512,-0.758901,-0.771981,-0.544588,-0.593369,-0.528986,-0.882473,-0.697591,-0.817877,-0.248622,-0.760593,-0.607212,-0.134194,0.683975,-0.228619,-0.28227,-0.733742,-0.757637,'\'(-inf-14.9]\'',0.389374,0.016986,-0.358177,-0.207998,-0.396069,0.078079,-0.758807,0.717668,0.970577,-0.808702,1.054736,1.094149,0.961868,-0.802649,-0.73137,-0.65205,-0.707132,-0.835245,-0.507239,-0.296061,-0.473677,-0.208211,1.361112,0.052031,1.623965,0.875853,1.797094,0.796999,0.001069,1.454245,-0.130068,1.814946,-0.841908,-1.168407,-0.855337,-0.857272,0.483099,-0.43385,-0.727108,-0.577753,-0.623988,-0.534921,-0.525616,-0.831201,-0.842827,-0.776816,-0.414182,-0.702782,1.632611,-1.22779,0.380281,0.355132,0.4667,0.499845,0.512744,0.517642,0.54677,0.437111,0.363615,0.4298,0.169072,0.13534,-0.10578,-0.157449,0.241036,0.73015,-0.241075,-0.62437,-0.849183,-0.842722,-0.795239,-0.767476,-0.623878,-0.669472,-0.928705,-0.720731,-0.925292,-0.916805,-0.914508,-0.849556,-0.931816,-0.940318,-0.917982,-0.927563,-0.914055,-0.468981,-0.868157,-0.914216,-0.843677,-0.803593,-0.853524,-0.887167,-0.945025,-0.745693,'\'(6.266667-10.533333]\''
-0.788493,-0.799081,-0.802117,-0.775928,-0.838724,-0.726766,-0.759814,-0.773283,-0.523096,-0.592875,-0.490864,-0.885315,-0.691621,-0.809268,-0.241273,-0.757334,-0.537759,-0.119531,0.668631,-0.12964,-0.205083,-0.722439,-0.74613,'\'(-inf-14.9]\'',0.389374,0.019228,-0.393698,-0.272668,-0.415753,0.032489,-0.750348,0.73491,0.993272,-0.801663,1.063748,1.101652,0.972766,-0.795315,-0.724335,-0.639819,-0.695656,-0.824962,-0.493977,-0.165169,-0.332544,-0.081735,1.605034,0.74874,2.048205,1.09616,1.466372,1.018786,0.525546,1.454245,0.078768,1.89521,-0.827267,-1.16629,-0.848258,-0.855267,0.398413,-0.433461,-0.725795,-0.576164,-0.623237,-0.534466,-0.525708,-0.828412,-0.841304,-0.773999,-0.40893,-0.704721,1.79469,-1.26424,0.471838,0.475829,0.579261,0.625706,0.645776,0.608404,0.608749,0.481865,0.394539,0.575889,0.131453,0.041223,-0.216737,-0.277797,0.163704,0.611049,-0.186176,-0.502843,-0.843056,-0.838458,-0.793738,-0.763489,-0.623878,-0.685759,-0.925179,-0.714325,-0.922509,-0.915669,-0.91113,-0.846499,-0.929135,-0.936781,-0.915395,-0.925085,-0.909721,-0.450394,-0.863583,-0.911151,-0.837543,-0.799223,-0.848055,-0.876807,-0.939978,-0.746417,'\'(6.266667-10.533333]\''
-0.779917,-0.791476,-0.79584,-0.769766,-0.836153,-0.723376,-0.75682,-0.772061,-0.51925,-0.592674,-0.484167,-0.88506,-0.688026,-0.809144,-0.224813,-0.753029,-0.63529,-0.173704,0.662622,-0.058332,-0.160871,-0.698678,-0.722819,'\'(-inf-14.9]\'',0.445687,-0.033447,-0.385373,-0.218209,-0.428624,0.006771,-0.738576,0.780233,1.033536,-0.786305,1.089554,1.140533,0.97871,-0.786469,-0.709386,-0.623182,-0.680117,-0.813278,-0.482483,-0.165169,-0.332544,-0.144973,1.605034,0.422621,2.189618,0.875853,1.907334,1.05311,-0.078397,1.839951,0.014128,2.171672,-0.832742,-1.192636,-0.842134,-0.851135,0.313735,-0.433011,-0.724382,-0.575929,-0.622139,-0.534284,-0.525154,-0.826328,-0.839846,-0.771369,-0.413296,-0.7043,1.822999,-1.26735,0.482935,0.48466,0.559965,0.619252,0.639729,0.614887,0.629409,0.496783,0.415154,0.496205,0.116405,0.053772,-0.216737,-0.267768,0.099354,0.511593,-0.094612,-0.453472,-0.835396,-0.831351,-0.786235,-0.744887,-0.623878,-0.681687,-0.920478,-0.698308,-0.919727,-0.914532,-0.902685,-0.837327,-0.92556,-0.933244,-0.908926,-0.918891,-0.904349,-0.436732,-0.855673,-0.907543,-0.833863,-0.797039,-0.843954,-0.874822,-0.938256,-0.745249,'\'(6.266667-10.533333]\''
-0.775077,-0.784926,-0.79379,-0.751809,-0.834655,-0.720349,-0.736849,-0.749018,-0.494525,-0.581807,-0.44987,-0.874998,-0.70058,-0.795199,-0.222743,-0.735032,-0.577928,-0.240825,0.77865,0.003929,0.01031,-0.701332,-0.711509,'\'(-inf-14.9]\'',0.177856,-0.18923,-0.433658,-0.301599,-0.457394,0.035294,-0.731096,0.780233,0.004241,-0.767747,1.135431,1.202606,0.999516,-0.779009,-0.693382,-0.606095,-0.664806,-0.80393,-0.4774,-0.296061,-0.473677,-0.208211,1.867317,0.17062,1.795681,1.344006,2.559591,1.008224,0.175895,1.699695,0.128491,1.779274,-0.804453,-1.148997,-0.8334,-0.847343,0.229058,-0.43254,-0.723053,-0.574222,-0.62081,-0.533739,-0.524324,-0.824179,-0.838573,-0.770121,-0.434368,-0.704659,1.897069,-1.279071,0.496808,0.505267,0.550317,0.616025,0.642753,0.660268,0.667285,0.537807,0.428898,0.443081,0.18412,0.091419,-0.185035,-0.272783,0.002789,0.47515,-0.022458,-0.510438,-0.8308,-0.827087,-0.781732,-0.731599,-0.623878,-0.68033,-0.916952,-0.688698,-0.915553,-0.912259,-0.899307,-0.828155,-0.922879,-0.929707,-0.905045,-0.916413,-0.89977,-0.410454,-0.851004,-0.90465,-0.831409,-0.792669,-0.839853,-0.886885,-0.941884,-0.743484,'\'(6.266667-10.533333]\''
-0.778944,-0.789612,-0.804904,-0.793842,-0.841142,-0.746482,-0.773562,-0.790039,-0.570533,-0.675778,-0.498732,-0.890072,-0.71576,-0.807415,-0.205632,-0.760397,-0.597589,-0.290321,0.510111,0.022022,-0.004992,-0.689404,-0.702336,'\'(-inf-14.9]\'',0.308338,-0.135434,-0.474728,-0.350953,-0.491464,-0.004919,-0.725288,0.781711,-0.011133,-0.804862,1.160828,1.241487,1.004469,-0.773311,-0.68283,-0.593774,-0.655517,-0.796919,-0.461264,-1.015968,-0.473677,-0.777353,0.755239,-0.674326,1.199726,0.3361,1.411252,0.97126,0.350721,1.103603,0.272687,1.752519,-0.849432,-1.167912,-0.82937,-0.84137,0.652455,-0.431823,-0.721471,-0.573044,-0.620637,-0.532283,-0.522663,-0.820944,-0.837073,-0.767637,-0.370158,-0.707439,2.112017,-1.32791,0.53565,0.546481,0.66931,0.712841,0.739504,0.754272,0.760254,0.619856,0.490746,0.682136,0.296979,0.172986,-0.142765,-0.252725,-0.070055,0.475725,0.135769,-0.491924,-0.826204,-0.822822,-0.77723,-0.71964,-0.623878,-0.674901,-0.91225,-0.688698,-0.911379,-0.910554,-0.892551,-0.818983,-0.919304,-0.924991,-0.902458,-0.911458,-0.894184,-0.397062,-0.845889,-0.899839,-0.824048,-0.787207,-0.828916,-0.88567,-0.941805,-0.74457,'\'(6.266667-10.533333]\''
-0.774034,-0.78316,-0.789915,-0.76332,-0.833535,-0.736911,-0.750799,-0.761595,-0.524324,-0.633995,-0.454702,-0.872453,-0.718636,-0.806888,-0.176045,-0.753795,-0.488498,-0.363773,0.525579,0.039583,0.06191,-0.690528,-0.697897,'\'(-inf-14.9]\'',0.225928,-0.188109,-0.507474,-0.202893,-0.602001,0.145881,-0.714115,0.820629,0.017418,-0.786305,1.17967,1.266725,1.013386,-0.764655,-0.671222,-0.5739,-0.647194,-0.782897,-0.448002,-0.557846,-0.191412,-0.524401,0.807696,-1.178328,1.654268,0.247977,1.64092,0.960699,-0.062504,1.746447,0.128491,1.716847,-0.821969,-1.115671,-0.823262,-0.838028,0.398413,-0.431638,-0.720495,-0.573339,-0.621503,-0.533466,-0.523862,-0.817277,-0.835597,-0.764868,-0.342699,-0.708429,2.220187,-1.35016,0.557846,0.549425,0.672526,0.72575,0.757645,0.773721,0.784357,0.642233,0.501053,0.655574,0.281931,0.166712,-0.153333,-0.277797,-0.1316,0.468705,0.1442,-0.435907,-0.818545,-0.815715,-0.769726,-0.705024,-0.623878,-0.670829,-0.908725,-0.707918,-0.909988,-0.907144,-0.887484,-0.803696,-0.915729,-0.922633,-0.897283,-0.907741,-0.889758,-0.388662,-0.843507,-0.895342,-0.819141,-0.781745,-0.824815,-0.885079,-0.94179,-0.743813,'\'(6.266667-10.533333]\''
-0.767776,-0.775481,-0.779506,-0.749649,-0.825402,-0.702639,-0.705889,-0.714589,-0.466689,-0.581984,-0.399691,-0.851316,-0.695721,-0.793016,-0.170258,-0.724267,-0.400254,-0.253955,0.743038,0.110358,0.1171,-0.682566,-0.690138,'\'(-inf-14.9]\'',0.372892,-0.161211,-0.536889,-0.373076,-0.566417,-0.014271,-0.697955,0.917187,0.12064,-0.709515,1.204248,1.292646,1.035182,-0.754708,-0.655922,-0.555554,-0.635036,-0.773082,-0.43474,-0.165169,-0.191412,-0.144973,1.578806,-0.022087,1.543158,1.283421,1.999202,1.127039,0.048749,1.769823,0.262742,1.957637,-0.785714,-1.126839,-0.811789,-0.831632,0.398413,-0.43129,-0.719368,-0.574692,-0.621272,-0.534103,-0.524416,-0.813138,-0.834079,-0.761235,-0.309586,-0.708553,2.271455,-1.361414,0.56062,0.546481,0.62107,0.69025,0.748575,0.783445,0.787801,0.642233,0.507925,0.602451,0.296979,0.166712,-0.158617,-0.272783,-0.140415,0.384374,0.077341,-0.375144,-0.813949,-0.81003,-0.763723,-0.686421,-0.623878,-0.681687,-0.904023,-0.695104,-0.908596,-0.905439,-0.880728,-0.782295,-0.912154,-0.917917,-0.892109,-0.901547,-0.883562,-0.371154,-0.834326,-0.891304,-0.813007,-0.773006,-0.822081,-0.88383,-0.941046,-0.742298,'\'(6.266667-10.533333]\''
-0.761438,-0.76557,-0.773164,-0.707989,-0.816964,-0.66668,-0.683599,-0.694256,-0.447645,-0.5471,-0.398151,-0.835337,-0.649219,-0.778489,-0.122005,-0.698636,-0.561013,-0.252817,0.925169,0.251909,0.294056,-0.667517,-0.669128,'\'(-inf-14.9]\'',0.206699,-0.248629,-0.552984,-0.364567,-0.592158,-0.121818,-0.675799,1.094045,1.25389,-0.626326,1.23415,1.33903,1.040136,-0.743911,-0.638159,-0.53361,-0.619923,-0.763735,-0.420152,-0.099723,-0.332544,-0.208211,2.011572,1.193448,2.058306,1.432129,2.045135,1.520445,0.525546,1.851639,0.879306,1.850619,-0.759099,-1.084101,-0.802638,-0.824854,-0.024976,-0.430696,-0.717988,-0.576517,-0.620059,-0.533284,-0.523862,-0.808943,-0.83248,-0.758458,-0.31236,-0.705523,2.107156,-1.328337,0.588365,0.567088,0.62107,0.722522,0.790903,0.822343,0.825677,0.675798,0.542285,0.655574,0.312027,0.172986,-0.1639,-0.272783,-0.135046,0.28533,-0.032066,-0.299664,-0.801693,-0.797237,-0.759221,-0.655859,-0.623878,-0.673544,-0.898147,-0.669477,-0.907205,-0.902597,-0.870594,-0.770066,-0.907685,-0.913201,-0.88564,-0.895353,-0.876267,-0.354591,-0.823303,-0.886436,-0.804419,-0.768636,-0.815245,-0.881702,-0.939419,-0.740565,'\'(-inf-6.266667]\''
-0.760157,-0.76508,-0.768937,-0.709337,-0.81474,-0.657654,-0.683093,-0.696313,-0.463932,-0.57392,-0.402241,-0.830538,-0.632961,-0.77117,-0.125054,-0.690454,-0.537313,-0.101428,0.953135,0.231687,0.295104,-0.657463,-0.656799,'\'(-inf-14.9]\'',0.371519,-0.316994,-0.598495,-0.52454,-0.583073,-0.117142,-0.664847,1.1305,1.295618,-0.630165,1.265281,1.384732,1.049053,-0.735317,-0.622506,-0.512297,-0.602794,-0.754854,-0.411973,-0.230615,-0.332544,-0.208211,1.691587,0.392974,1.916892,1.283421,1.797094,1.039908,0.207681,1.524373,0.247826,1.788192,-0.75054,-1.058386,-0.791063,-0.820135,0.059702,-0.429672,-0.716288,-0.57846,-0.619424,-0.533193,-0.524324,-0.804735,-0.830698,-0.754667,-0.251252,-0.701862,1.919264,-1.288738,0.718764,0.63774,0.659662,0.816111,0.902772,0.887173,0.894543,0.724282,0.600696,0.522766,0.108881,0.003576,-0.343546,-0.423218,-0.086964,0.328131,-0.094023,-0.409323,-0.794034,-0.791552,-0.750216,-0.646558,-0.623878,-0.670829,-0.891095,-0.650257,-0.903031,-0.900324,-0.86046,-0.751722,-0.90411,-0.908485,-0.879172,-0.889159,-0.869338,-0.335194,-0.812408,-0.882111,-0.799511,-0.758805,-0.811144,-0.878887,-0.937082,-0.741892,'\'(-inf-6.266667]\''
-0.756093,-0.757794,-0.765478,-0.701491,-0.80871,-0.64567,-0.666519,-0.6798,-0.448049,-0.564589,-0.382339,-0.818774,-0.625705,-0.766116,-0.115944,-0.678134,-0.557855,-0.218418,1.016607,0.233816,0.333332,-0.642632,-0.637927,'\'(-inf-14.9]\'',0.258892,-0.183626,-0.636235,-0.551769,-0.622443,-0.130001,-0.650928,1.207352,1.354916,-0.580892,1.294364,1.417474,1.07184,-0.726346,-0.603688,-0.492332,-0.585892,-0.742702,-0.407995,-0.034277,-0.191412,-0.081735,1.678473,0.526386,2.038104,1.112683,1.843027,1.612856,0.334827,1.489309,0.267715,3.643168,-0.738819,-1.067708,-0.78072,-0.814871,0.059702,-0.429262,-0.714942,-0.580402,-0.618672,-0.533011,-0.524047,-0.800932,-0.828922,-0.75038,-0.189755,-0.701668,1.940979,-1.298042,0.785351,0.793763,0.762575,0.883882,0.984406,0.94552,0.932419,0.750388,0.638492,0.562609,0.063737,-0.077991,-0.433369,-0.488406,-0.150913,0.208568,-0.056574,-0.394132,-0.784842,-0.781602,-0.742712,-0.62264,-0.623878,-0.649113,-0.885219,-0.640647,-0.897466,-0.898051,-0.850326,-0.736435,-0.899641,-0.90259,-0.87141,-0.881726,-0.862958,-0.315224,-0.802941,-0.878102,-0.79215,-0.753343,-0.804308,-0.875612,-0.934435,-0.741233,'\'(-inf-6.266667]\''
-0.749941,-0.755022,-0.770538,-0.713216,-0.810997,-0.647076,-0.668846,-0.68181,-0.463987,-0.562164,-0.413321,-0.812859,-0.626209,-0.761343,-0.148182,-0.679745,-0.562542,-0.205827,0.958149,0.234348,0.23366,-0.641758,-0.646245,'\'(-inf-14.9]\'',0.644844,-0.272164,-0.62458,-0.546664,-0.608815,-0.00866,-0.642911,1.237895,1.403233,-0.565534,1.307472,1.45158,1.054006,-0.720302,-0.599467,-0.479112,-0.574273,-0.731952,-0.397164,-0.034277,-0.332544,-0.081735,1.736175,0.674622,2.068407,1.057606,2.017575,1.092715,0.748052,1.66463,0.307493,1.449302,-0.752886,-1.059917,-0.771525,-0.81003,0.229058,-0.429119,-0.714,-0.584523,-0.617459,-0.532193,-0.523401,-0.797531,-0.827275,-0.747875,-0.188967,-0.702034,1.995432,-1.31108,0.843614,0.870302,0.852625,0.951654,1.07511,1.003867,0.994398,0.795142,0.638492,0.682136,0.041165,-0.096815,-0.480922,-0.593711,-0.216144,0.065842,0.056558,-0.38084,-0.77565,-0.773074,-0.739711,-0.627955,-0.623878,-0.655899,-0.879342,-0.64385,-0.89051,-0.895778,-0.841881,-0.727263,-0.895172,-0.896695,-0.867529,-0.875532,-0.857586,-0.299403,-0.797509,-0.873806,-0.786016,-0.748973,-0.797473,-0.872619,-0.932459,-0.742339,'\'(-inf-6.266667]\''
-0.744852,-0.749257,-0.760962,-0.694808,-0.806344,-0.639593,-0.659813,-0.670796,-0.468457,-0.571151,-0.412848,-0.798544,-0.620493,-0.75314,-0.168878,-0.671283,-0.585417,-0.087276,0.987041,0.274791,0.350982,-0.638261,-0.635033,'\'(-inf-14.9]\'',0.355037,-0.16009,-0.697285,-0.69132,-0.643642,-0.01544,-0.634105,1.274351,1.420071,-0.554655,1.330001,1.485686,1.05896,-0.713849,-0.58786,-0.457349,-0.56737,-0.723539,-0.399374,-0.099723,-0.332544,-0.144973,1.484384,0.422621,1.482552,0.941945,2.017575,0.841885,0.49376,1.536062,0.203075,1.030149,-0.725544,-1.011414,-0.760392,-0.804452,0.14438,-0.428709,-0.712418,-0.583345,-0.617748,-0.532738,-0.523862,-0.794889,-0.825399,-0.745052,-0.170052,-0.696807,1.737912,-1.245941,0.907427,0.864415,0.875137,0.929063,1.050922,0.935795,0.915203,0.724282,0.59726,0.270431,-0.289888,-0.385439,-0.702837,-0.769219,-0.325771,-0.042963,0.146161,-0.305835,-0.774118,-0.773074,-0.732207,-0.634599,-0.623878,-0.604323,-0.874641,-0.637444,-0.884944,-0.892936,-0.836814,-0.715034,-0.890704,-0.891979,-0.862354,-0.870577,-0.85258,-0.279669,-0.79357,-0.869739,-0.781109,-0.742419,-0.793372,-0.869893,-0.929906,-0.742275,'\'(-inf-6.266667]\''
-0.743368,-0.74592,-0.762691,-0.698072,-0.804683,-0.635011,-0.652613,-0.662652,-0.463213,-0.581251,-0.3939,-0.790165,-0.618482,-0.74741,-0.145575,-0.663666,-0.519259,-0.061835,1.007807,0.309912,0.365713,-0.629393,-0.627175,'\'(-inf-14.9]\'',0.469037,-0.253112,-0.660655,-0.599421,-0.634556,-0.137716,-0.629749,1.308836,1.452282,-0.552096,1.355398,1.527978,1.05896,-0.711708,-0.577835,-0.444578,-0.55936,-0.715593,-0.415289,-0.165169,-0.050279,-0.144973,1.416191,1.000742,1.290634,0.974991,1.539866,1.000304,0.509653,1.571126,0.297548,1.36012,-0.705539,-0.970747,-0.746761,-0.799037,0.14438,-0.428177,-0.710483,-0.583875,-0.61717,-0.532556,-0.523585,-0.792244,-0.823828,-0.742896,-0.154226,-0.696807,1.768888,-1.254163,1.021179,1.029269,1.122772,1.12915,1.150697,0.96821,0.918646,0.724282,0.576645,0.164184,-0.52313,-0.636416,-0.919469,-1.0049,-0.403905,-0.03098,0.183218,-0.182408,-0.763395,-0.763124,-0.723202,-0.615996,-0.623878,-0.602966,-0.867589,-0.631037,-0.876597,-0.890663,-0.82668,-0.699748,-0.885341,-0.884905,-0.85718,-0.864383,-0.846933,-0.262229,-0.787979,-0.865214,-0.774975,-0.735865,-0.785169,-0.867909,-0.928304,-0.74067,'\'(-inf-6.266667]\''
-0.73924,-0.740376,-0.760866,-0.685343,-0.7983,-0.620606,-0.641294,-0.653253,-0.4683,-0.576206,-0.407625,-0.774198,-0.602081,-0.737644,-0.133583,-0.651484,-0.52119,-0.009833,1.067012,0.392395,0.509869,-0.620495,-0.611953,'\'(-inf-14.9]\'',0.256145,-0.310269,-0.65455,-0.533049,-0.655755,-0.111297,-0.619176,1.36007,1.502795,-0.537378,1.38571,1.572315,1.067877,-0.704437,-0.560424,-0.420837,-0.547684,-0.708583,-0.406669,-0.099723,-0.050279,-0.144973,1.445042,0.422621,1.522956,1.123699,1.539866,1.079513,0.191788,1.477621,0.441745,1.618747,-0.674738,-0.883648,-0.729044,-0.792273,0.14438,-0.427952,-0.709255,-0.588113,-0.616362,-0.532011,-0.523216,-0.789246,-0.821893,-0.74133,-0.187726,-0.699378,1.922533,-1.297347,1.162677,1.202956,1.167797,1.309873,1.30187,1.026557,0.994398,0.798872,0.635056,0.150903,-0.77142,-0.818375,-1.083263,-1.175393,-0.43051,-0.093262,0.277331,-0.104555,-0.758799,-0.757438,-0.711196,-0.59075,-0.623878,-0.558176,-0.860537,-0.61502,-0.866858,-0.887821,-0.816546,-0.684461,-0.880872,-0.877831,-0.850711,-0.85695,-0.838966,-0.239594,-0.778958,-0.859142,-0.767614,-0.73368,-0.778334,-0.866502,-0.926732,-0.740936,'\'(-inf-6.266667]\''
-0.737261,-0.738733,-0.75699,-0.679107,-0.792712,-0.60605,-0.627457,-0.639305,-0.45859,-0.570349,-0.395525,-0.760598,-0.587642,-0.727587,-0.11048,-0.63522,-0.570016,0.073056,1.160424,0.376431,0.443622,-0.605445,-0.600379,'\'(-inf-14.9]\'',0.416844,-0.256474,-0.697285,-0.556875,-0.703453,-0.100776,-0.605447,1.424113,1.564289,-0.533538,1.432816,1.630296,1.097599,-0.694836,-0.54442,-0.402131,-0.534731,-0.693626,-0.398711,-0.034277,-0.050279,-0.081735,1.741421,0.244738,2.674463,1.074129,1.7236,1.116477,0.477867,1.24386,0.650581,1.386875,-0.674033,-0.958317,-0.713729,-0.785795,0.14438,-0.427521,-0.70811,-0.589232,-0.614571,-0.530919,-0.521555,-0.785683,-0.820154,-0.738266,-0.149257,-0.703966,2.211242,-1.362644,1.384633,1.54444,1.376839,1.53255,1.564913,1.101111,1.052934,0.851084,0.717519,0.243869,-1.200284,-1.213665,-1.431987,-1.456206,-0.319521,-0.008964,0.185767,-0.150602,-0.749608,-0.750331,-0.702191,-0.585435,-0.623878,-0.559534,-0.855836,-0.608613,-0.85851,-0.88498,-0.808101,-0.672232,-0.876404,-0.871936,-0.844243,-0.850756,-0.833258,-0.219455,-0.771715,-0.855247,-0.76148,-0.728218,-0.770131,-0.863467,-0.924021,-0.740531,'\'(-inf-6.266667]\''
-0.730794,-0.730514,-0.750489,-0.671368,-0.787802,-0.596413,-0.615416,-0.630047,-0.452977,-0.565197,-0.390108,-0.751839,-0.580641,-0.717654,-0.089575,-0.622364,-0.545417,0.128388,1.223523,0.392395,0.400467,-0.597733,-0.597223,'\'(-inf-14.9]\'',0.519856,-0.118623,-0.6823,-0.471783,-0.720866,0.01659,-0.596609,1.463525,1.595036,-0.535458,1.464357,1.670541,1.115432,-0.68854,-0.533516,-0.383335,-0.527629,-0.684278,-0.394954,-0.034277,-0.191412,-0.144973,1.61028,0.882153,1.371442,0.650038,2.761699,1.177205,0.652693,1.349052,0.521301,1.645501,-0.682989,-1.048072,-0.70543,-0.778935,0.14438,-0.427132,-0.706949,-0.590232,-0.61226,-0.529009,-0.519802,-0.783911,-0.818525,-0.735758,-0.148137,-0.702875,2.158251,-1.354686,1.459543,1.612148,1.518345,1.571277,1.652593,1.178907,1.1218,0.899568,0.755315,0.270431,-1.222856,-1.257586,-1.505959,-1.536438,-0.31896,0.028796,0.235372,-0.118796,-0.737352,-0.736117,-0.694688,-0.577462,-0.623878,-0.559534,-0.851135,-0.608613,-0.850162,-0.883275,-0.799656,-0.653888,-0.874616,-0.868399,-0.839068,-0.8458,-0.828527,-0.202521,-0.765362,-0.852154,-0.755346,-0.723848,-0.763296,-0.861263,-0.920996,-0.739652,'\'(-inf-6.266667]\''
-0.726991,-0.727423,-0.754396,-0.687266,-0.790115,-0.606813,-0.614097,-0.623329,-0.45933,-0.551484,-0.413883,-0.741979,-0.600861,-0.734467,-0.136854,-0.63489,-0.492106,0.02428,1.068861,0.370045,0.425548,-0.589989,-0.585157,'\'(-inf-14.9]\'',0.263012,-0.119744,-0.692845,-0.54326,-0.703453,0.025475,-0.592285,1.454657,1.619927,-0.584731,1.486477,1.706011,1.117414,-0.683661,-0.522964,-0.364809,-0.519164,-0.674463,-0.389207,-0.296061,-0.191412,-0.208211,0.52443,0.852505,-0.365919,0.50133,0.804929,0.234613,0.303041,-0.509351,-0.015706,1.039067,-0.678516,-0.953723,-0.694852,-0.77378,0.229058,-0.426866,-0.706007,-0.595824,-0.612491,-0.527736,-0.518602,-0.780797,-0.817684,-0.732156,-0.120134,-0.700071,2.029232,-1.33033,1.470641,1.576822,1.605178,1.606776,1.685852,1.217805,1.15279,0.933133,0.820598,0.363396,-1.162665,-1.226214,-1.47954,-1.46122,-0.322406,0.046623,0.273018,-0.07085,-0.723565,-0.724746,-0.684182,-0.549558,-0.623878,-0.539175,-0.844083,-0.5958,-0.848771,-0.879297,-0.789522,-0.632487,-0.870147,-0.863683,-0.831306,-0.839606,-0.820835,-0.19068,-0.749637,-0.848088,-0.751665,-0.718386,-0.75646,-0.858325,-0.919447,-0.738357,'\'(-inf-6.266667]\''
-0.722462,-0.720113,-0.749144,-0.69406,-0.786966,-0.597449,-0.610718,-0.623801,-0.480596,-0.573288,-0.431886,-0.732689,-0.586727,-0.727693,-0.108506,-0.629292,-0.416031,-0.020924,1.069376,0.31417,0.351753,-0.576095,-0.57263,'\'(-inf-14.9]\'',0.41135,-0.163453,-0.66676,-0.495609,-0.689068,0.030151,-0.584489,1.476333,1.671904,-0.574493,1.495079,1.729203,1.104534,-0.677271,-0.514171,-0.352669,-0.512801,-0.665583,-0.386997,-0.165169,-0.191412,-0.144973,0.23592,0.615328,-0.557837,0.055208,0.860049,0.316462,-0.110184,0.039989,-0.005761,1.110412,-0.650172,-0.846449,-0.679007,-0.768106,0.313735,-0.4266,-0.704964,-0.602476,-0.614051,-0.529919,-0.520817,-0.775702,-0.816731,-0.729019,-0.095755,-0.701224,2.135768,-1.361529,1.467867,1.488507,1.59553,1.587413,1.634453,1.195115,1.15279,0.936863,0.803418,0.150903,-1.207808,-1.219939,-1.468973,-1.481278,-0.319361,0.073881,0.270861,-0.043791,-0.712841,-0.711954,-0.675177,-0.522983,-0.590264,-0.42245,-0.835856,-0.58619,-0.840423,-0.877023,-0.777699,-0.604971,-0.864785,-0.856609,-0.82225,-0.829696,-0.815371,-0.160422,-0.73817,-0.846484,-0.744304,-0.70637,-0.750992,-0.855675,-0.917998,-0.737793,'\'(-inf-6.266667]\''
-0.718971,-0.716237,-0.748087,-0.652658,-0.779379,-0.59152,-0.600344,-0.615214,-0.468453,-0.576901,-0.406874,-0.726223,-0.585024,-0.724517,-0.093536,-0.620493,-0.411571,0.013717,1.096828,0.335455,0.394565,-0.573379,-0.567665,'\'(-inf-14.9]\'',0.334434,-0.195954,-0.62902,-0.447957,-0.658784,0.027813,-0.571107,1.581758,1.720221,-0.470186,1.513102,1.754442,1.111469,-0.670661,-0.504146,-0.33738,-0.504478,-0.656702,-0.385007,0.031169,-0.332544,-0.081735,1.093583,0.17062,0.947203,0.936437,1.301011,0.918454,-0.221437,0.741273,0.789805,1.244184,-0.612089,-0.760972,-0.661764,-0.763715,-0.024976,-0.426067,-0.703281,-0.605772,-0.613646,-0.530373,-0.521279,-0.770735,-0.815594,-0.726147,-0.09056,-0.699767,2.087687,-1.359604,1.47619,1.473788,1.646987,1.606776,1.637476,1.217805,1.159677,0.977887,0.865265,0.124342,-1.177712,-1.226214,-1.426703,-1.406061,-0.314312,0.131486,0.33674,-0.146805,-0.703649,-0.703425,-0.661671,-0.500394,-0.590264,-0.385804,-0.827629,-0.57658,-0.823728,-0.874182,-0.762499,-0.580513,-0.860316,-0.848356,-0.813195,-0.821024,-0.807313,-0.140721,-0.723557,-0.841959,-0.736943,-0.71074,-0.744156,-0.851803,-0.915222,-0.736134,'\'(-inf-6.266667]\''
-0.728193,-0.728895,-0.754204,-0.692374,-0.780263,-0.614211,-0.634324,-0.652996,-0.523929,-0.665832,-0.425354,-0.744319,-0.596656,-0.747486,-0.072189,-0.650486,-0.461813,0.099227,0.795789,0.420599,0.486556,-0.586399,-0.58006,'\'(-inf-14.9]\'',0.464916,-0.226214,-0.680635,-0.533049,-0.691339,0.29668,-0.573064,1.562053,1.719489,-0.493223,1.511873,1.759899,1.100571,-0.671353,-0.516633,-0.329646,-0.502432,-0.647355,-0.380365,-0.885076,-1.602741,-0.903829,0.833924,0.096502,0.987606,0.220438,1.594986,0.593695,-0.18965,0.671144,0.133463,1.36012,-0.677414,-0.933187,-0.650445,-0.756118,0.229058,-0.424941,-0.700875,-0.605419,-0.612433,-0.529919,-0.520725,-0.763479,-0.814199,-0.723635,-0.036858,-0.698209,2.038495,-1.359806,1.453994,1.459069,1.640555,1.61323,1.598171,1.234013,1.180336,0.981617,0.889317,0.057938,-1.079901,-1.138371,-1.37915,-1.330843,-0.285302,0.230147,0.406737,-0.277352,-0.691394,-0.692054,-0.645162,-0.492421,-0.590264,-0.292152,-0.819402,-0.563766,-0.804249,-0.871909,-0.747298,-0.556054,-0.854953,-0.838924,-0.804139,-0.812352,-0.796477,-0.112824,-0.709326,-0.834198,-0.736943,-0.699816,-0.74689,-0.848088,-0.911923,-0.734312,'\'(-inf-6.266667]\''
-0.732155,-0.732624,-0.751161,-0.660664,-0.776299,-0.597442,-0.610066,-0.624737,-0.503002,-0.61487,-0.433799,-0.719371,-0.58733,-0.731157,-0.068167,-0.625902,-0.499027,0.105448,0.957794,0.401441,0.56277,-0.58643,-0.572564,'\'(-inf-14.9]\'',0.238289,-0.238542,-0.69895,-0.539856,-0.713295,-0.018947,-0.561323,1.617721,1.743647,-0.461868,1.536041,1.792641,1.111469,-0.6632,-0.500101,-0.314718,-0.503853,-0.63567,-0.377492,-0.230615,-0.473677,-0.334687,1.169645,-0.066558,1.553259,0.732653,1.503119,0.823403,0.096429,0.986722,0.327382,1.386875,-0.657883,-0.913417,-0.644896,-0.749777,-0.024976,-0.424613,-0.699512,-0.611835,-0.612375,-0.530373,-0.521924,-0.757328,-0.812788,-0.720775,-0.005907,-0.700055,2.186737,-1.402446,1.517807,1.488507,1.688795,1.629366,1.598171,1.230771,1.20444,1.026371,0.937421,-0.247521,-1.260476,-1.238762,-1.437271,-1.375974,-0.277609,0.251231,0.377718,-0.233678,-0.685266,-0.68779,-0.631655,-0.488435,-0.514632,-0.351872,-0.809999,-0.547749,-0.786163,-0.869067,-0.732097,-0.543825,-0.848697,-0.828314,-0.79379,-0.801203,-0.78561,-0.101287,-0.69322,-0.826093,-0.725902,-0.691076,-0.734587,-0.843564,-0.908983,-0.734336,'\'(-inf-6.266667]\''
-0.732758,-0.730588,-0.748375,-0.675611,-0.774643,-0.597135,-0.610689,-0.624998,-0.513493,-0.633557,-0.435645,-0.71601,-0.586252,-0.724992,-0.074875,-0.623663,-0.569998,0.085333,0.931231,0.365256,0.480062,-0.571849,-0.561122,'\'(-inf-14.9]\'',0.477278,-0.329322,-0.736691,-0.657283,-0.712538,0.037165,-0.551254,1.662059,1.785375,-0.436911,1.554064,1.813786,1.124349,-0.655992,-0.490076,-0.297901,-0.506324,-0.62679,-0.365335,-0.230615,-0.473677,-0.334687,1.26669,0.111325,1.179524,1.02456,1.585799,0.707229,0.160002,0.858154,0.222964,1.244184,-0.652198,-0.894051,-0.634597,-0.742508,0.14438,-0.423835,-0.697358,-0.614307,-0.611566,-0.530464,-0.52174,-0.751458,-0.810874,-0.718828,-0.006601,-0.698521,2.136777,-1.403115,1.531679,1.432575,1.511913,1.474461,1.43188,1.104353,1.087367,0.948051,0.906497,-1.04437,-1.591529,-1.483466,-1.574647,-1.446177,-0.300288,0.25304,0.482027,-0.153925,-0.679139,-0.680683,-0.618148,-0.476476,-0.481017,-0.330156,-0.800597,-0.541342,-0.766685,-0.866226,-0.718585,-0.528538,-0.843335,-0.818882,-0.784734,-0.792531,-0.77685,-0.09083,-0.678099,-0.820393,-0.720994,-0.689984,-0.729118,-0.838628,-0.905493,-0.733843,'\'(-inf-6.266667]\''
-0.724104,-0.729116,-0.749432,-0.677445,-0.776314,-0.600229,-0.611726,-0.62626,-0.535563,-0.655507,-0.455155,-0.707613,-0.590994,-0.727987,-0.02243,-0.621909,-0.634516,0.122711,0.902162,0.345566,0.447315,-0.560483,-0.550371,'\'(-inf-14.9]\'',0.398988,-0.143279,-0.763331,-0.652177,-0.75115,0.127177,-0.547814,1.663044,1.848333,-0.426032,1.545053,1.808329,1.110478,-0.652624,-0.494825,-0.290346,-0.515812,-0.619311,-0.342127,-0.296061,-0.61481,-0.334687,0.865398,-0.036911,0.866395,0.721638,1.062157,0.427356,-0.157864,0.355567,0.024073,1.21743,-0.669868,-0.912291,-0.630509,-0.731884,0.229058,-0.423056,-0.695373,-0.617486,-0.610295,-0.529737,-0.520817,-0.746039,-0.808539,-0.715977,-0.035369,-0.697742,2.140335,-1.413116,1.581619,1.464957,1.569802,1.53255,1.453044,1.12056,1.101141,0.914486,0.875573,-1.190459,-1.68934,-1.571308,-1.717307,-1.581568,-0.340437,0.232373,0.772013,-0.194276,-0.666883,-0.667891,-0.600139,-0.464517,-0.391939,-0.311154,-0.791194,-0.538139,-0.749989,-0.862816,-0.705073,-0.519366,-0.836185,-0.808271,-0.775678,-0.782621,-0.7687,-0.075818,-0.662693,-0.815783,-0.716087,-0.682337,-0.725017,-0.835477,-0.902073,-0.732895,'\'(-inf-6.266667]\''
-0.722275,-0.726884,-0.73771,-0.674931,-0.761994,-0.612705,-0.626808,-0.645261,-0.566827,-0.726612,-0.447249,-0.718184,-0.600574,-0.745902,-0.048449,-0.644033,-0.551343,0.076474,0.675085,0.376963,0.353402,-0.557548,-0.557933,'\'(-inf-14.9]\'',0.956628,-0.324839,-0.718931,-0.624948,-0.702696,0.194978,-0.545195,1.611809,1.901775,-0.417713,1.49385,1.731932,1.097599,-0.646737,-0.492363,-0.2854,-0.514392,-0.605757,-0.324665,-0.230615,-0.755943,-0.397925,0.912609,0.17062,1.017909,0.699607,0.99785,0.577853,-0.300903,0.472447,0.227936,1.351202,-0.690854,-0.903779,-0.62798,-0.727151,0.14438,-0.422729,-0.693387,-0.619075,-0.610006,-0.529919,-0.520909,-0.742598,-0.806924,-0.713529,-0.03437,-0.694081,1.98481,-1.389523,1.712019,1.626868,1.659851,1.61323,1.555842,1.172424,1.128687,0.925674,0.896189,-1.36311,-1.922582,-1.816011,-1.949789,-1.787163,-0.333945,0.246394,0.726917,-0.16247,-0.654628,-0.653677,-0.58363,-0.477805,-0.232271,-0.289438,-0.782967,-0.531732,-0.736076,-0.859974,-0.69325,-0.50408,-0.828141,-0.79766,-0.767916,-0.77271,-0.760459,-0.061346,-0.652114,-0.809396,-0.71118,-0.677968,-0.719549,-0.833026,-0.900314,-0.732549,'\'(-inf-6.266667]\''
-0.722345,-0.725927,-0.735019,-0.683116,-0.75803,-0.612834,-0.613254,-0.621878,-0.551739,-0.671175,-0.469805,-0.696937,-0.612519,-0.75002,-0.086225,-0.642241,-0.568063,0.017553,0.650568,0.445609,0.461723,-0.543997,-0.53939,'\'(-inf-14.9]\'',0.475904,-0.062586,-0.736136,-0.674301,-0.70421,0.157804,-0.544342,1.626096,1.932522,-0.423473,1.508596,1.77627,1.068867,-0.6468,-0.486207,-0.283602,-0.504904,-0.606224,-0.346989,-0.296061,-0.61481,-0.397925,1.054241,-0.481619,1.068414,0.705114,1.843027,0.701948,0.477867,0.542576,0.327382,1.101494,-0.659921,-0.885224,-0.619325,-0.724574,0.14438,-0.422626,-0.692125,-0.62402,-0.609429,-0.529555,-0.520817,-0.737984,-0.805233,-0.710892,-0.025417,-0.693146,1.981367,-1.398307,1.847967,1.983071,1.897838,1.842362,1.815861,1.285877,1.231986,1.003994,0.961472,-0.87172,-2.027917,-1.935225,-2.097733,-1.937598,-0.370568,0.290843,0.648097,-0.18763,-0.634712,-0.632356,-0.56412,-0.445915,-0.165042,-0.27858,-0.77474,-0.512512,-0.724946,-0.857133,-0.681427,-0.494908,-0.821885,-0.789407,-0.760154,-0.762799,-0.750874,-0.043704,-0.636708,-0.803038,-0.705046,-0.668136,-0.71408,-0.828783,-0.896844,-0.730043,'\'(-inf-6.266667]\''
-0.722327,-0.726221,-0.738767,-0.687423,-0.760937,-0.599688,-0.606533,-0.620373,-0.542586,-0.679708,-0.445908,-0.704993,-0.59459,-0.743967,-0.062123,-0.633094,-0.555072,-0.019,0.68906,0.488713,0.459175,-0.538689,-0.537285,'\'(-inf-14.9]\'',0.603639,-0.110778,-0.710051,-0.590911,-0.705724,0.234724,-0.539482,1.601464,1.972786,-0.426672,1.487296,1.726475,1.089673,-0.640379,-0.473193,-0.269842,-0.489308,-0.597344,-0.345221,-0.230615,-0.755943,-0.334687,0.658195,0.155796,0.219935,0.650038,0.924356,0.287419,-0.459836,0.075053,0.242853,0.73585,-0.667059,-0.850637,-0.614631,-0.717182,0.14438,-0.422319,-0.691065,-0.631319,-0.608331,-0.528463,-0.520263,-0.73579,-0.803557,-0.708405,-0.016954,-0.69634,2.195274,-1.449218,2.497189,2.454085,2.360948,2.313533,2.299617,1.681339,1.565986,1.261329,1.256965,-1.8545,-2.870598,-2.794823,-2.969542,-2.679745,-0.354861,0.370777,0.544573,-0.139684,-0.620925,-0.620985,-0.54461,-0.433956,-0.148235,-0.21886,-0.765338,-0.496495,-0.717989,-0.854291,-0.669604,-0.479621,-0.813841,-0.779975,-0.753686,-0.754128,-0.741931,-0.020596,-0.62559,-0.796451,-0.701365,-0.669229,-0.708612,-0.827952,-0.895046,-0.729604,'\'(-inf-6.266667]\''
-0.718618,-0.722149,-0.73598,-0.686879,-0.755569,-0.602775,-0.608171,-0.62334,-0.550014,-0.706848,-0.434809,-0.706622,-0.59877,-0.750453,-0.062306,-0.638631,-0.487827,-0.081653,0.60708,0.31683,0.330467,-0.535192,-0.531696,'\'(-inf-14.9]\'',0.591278,-0.254232,-0.69895,-0.592613,-0.689825,0.286159,-0.536578,1.556634,1.993284,-0.428592,1.450021,1.675316,1.073821,-0.634618,-0.461937,-0.255993,-0.477832,-0.589398,-0.337043,-0.296061,-0.897076,-0.397925,0.246411,0.793211,-0.305313,0.270007,0.198605,-0.253845,-0.316796,-0.626231,-0.19968,0.15617,-0.684289,-0.892565,-0.610281,-0.712872,0.14438,-0.422319,-0.690139,-0.639089,-0.607002,-0.527827,-0.519525,-0.734445,-0.802209,-0.706188,-0.029943,-0.696963,2.270767,-1.471316,2.333496,2.554175,2.389892,2.365169,2.2845,1.778584,1.686501,1.496287,1.459687,-1.137336,-2.200968,-2.205026,-2.324932,-2.088033,-0.345245,0.514382,0.527711,-0.119271,-0.605606,-0.603928,-0.532604,-0.418011,-0.081006,-0.213431,-0.755935,-0.480478,-0.70825,-0.850881,-0.657781,-0.449048,-0.804903,-0.769364,-0.74463,-0.744217,-0.734269,0.006019,-0.614027,-0.79184,-0.695231,-0.660489,-0.70451,-0.824279,-0.891416,-0.7287,'\'(-inf-6.266667]\''
-0.715675,-0.718985,-0.739247,-0.691079,-0.754402,-0.601469,-0.601682,-0.615882,-0.548892,-0.710687,-0.429336,-0.700437,-0.601954,-0.749448,-0.036632,-0.633811,-0.542767,-0.062533,0.612929,0.298737,0.283931,-0.521267,-0.519893,'\'(-inf-14.9]\'',0.567928,-0.086122,-0.67786,-0.516031,-0.695125,0.356065,-0.533453,1.567964,2.046725,-0.420273,1.45084,1.681455,1.066886,-0.632226,-0.464751,-0.268223,-0.477292,-0.583322,-0.335496,-0.296061,-0.897076,-0.397925,0.178218,-0.288912,0.371449,-0.060454,0.566074,-0.311932,-0.300903,-0.380782,-0.383655,0.093742,-0.674881,-0.876443,-0.605212,-0.708385,0.229058,-0.422114,-0.688827,-0.646388,-0.605327,-0.526917,-0.518233,-0.731369,-0.800846,-0.703866,-0.046345,-0.69377,2.128395,-1.452711,2.499964,2.457028,2.470293,2.371623,2.160537,1.613268,1.596975,1.488828,1.483739,-2.478699,-3.036125,-2.744628,-2.652521,-2.353802,-0.380425,0.468728,0.656136,-0.165319,-0.59335,-0.592557,-0.520598,-0.402065,-0.030585,-0.17407,-0.745358,-0.458055,-0.692946,-0.846335,-0.644269,-0.427647,-0.796859,-0.758753,-0.735575,-0.733068,-0.724929,0.030645,-0.600431,-0.785597,-0.68787,-0.655028,-0.696308,-0.821038,-0.888798,-0.728172,'\'(-inf-6.266667]\''
-0.714037,-0.720481,-0.730472,-0.67894,-0.745738,-0.591306,-0.59635,-0.606232,-0.558852,-0.743041,-0.418029,-0.684755,-0.588282,-0.745908,-0.01846,-0.624845,-0.656885,0.009309,0.654426,0.237541,0.116034,-0.511775,-0.521668,'\'(-inf-14.9]\'',0.845375,-0.0525,-0.63568,-0.393498,-0.692096,0.290835,-0.529413,1.557619,2.073812,-0.423473,1.443057,1.665766,1.070849,-0.627535,-0.461586,-0.249338,-0.476724,-0.572572,-0.330854,-0.426954,-1.038209,-0.461163,-0.233566,-0.125852,-0.749755,-0.087992,0.088365,-0.243284,-0.714128,-0.287277,-0.15493,0.075906,-0.627324,-0.774618,-0.595688,-0.702371,-0.024976,-0.421295,-0.687313,-0.655511,-0.605731,-0.525826,-0.516941,-0.728741,-0.799464,-0.702267,-0.088046,-0.691355,2.039381,-1.444734,2.511061,2.398152,2.457429,2.371623,2.184725,1.716995,1.738151,1.61936,1.607433,-2.425575,-2.825455,-2.512473,-2.488726,-2.193338,-0.38339,0.444107,0.780444,-0.193802,-0.574967,-0.574079,-0.490583,-0.406052,-0.030585,-0.157783,-0.732429,-0.432428,-0.662338,-0.841788,-0.624001,-0.400131,-0.787028,-0.744605,-0.721344,-0.718202,-0.713177,0.069809,-0.577527,-0.780184,-0.689097,-0.665951,-0.693574,-0.817592,-0.884641,-0.728659,'\'(6.266667-10.533333]\''
-0.719323,-0.72551,-0.739663,-0.69254,-0.749208,-0.590591,-0.590788,-0.595603,-0.551004,-0.75518,-0.393173,-0.680077,-0.591703,-0.746889,-0.064027,-0.626747,-0.540832,-0.054828,0.607133,0.182198,0.06509,-0.50756,-0.517854,'\'(-inf-14.9]\'',0.734121,0.101042,-0.632905,-0.316916,-0.72238,0.30837,-0.526794,1.520671,2.119933,-0.436271,1.417251,1.659627,1.017349,-0.622562,-0.45543,-0.232521,-0.469906,-0.566496,-0.325328,-0.361507,-1.038209,-0.397925,-0.20996,-1.178328,-0.345717,0.253484,-0.113743,-0.45715,-0.634661,-0.766488,-0.323987,-0.022194,-0.622565,-0.875407,-0.589147,-0.696779,-0.024976,-0.420414,-0.68531,-0.660809,-0.606944,-0.527645,-0.519156,-0.724014,-0.797802,-0.700237,-0.079756,-0.687928,1.905295,-1.425455,2.597069,2.615995,2.734008,2.700798,2.747091,2.319914,2.292521,2.100465,2.002569,-0.367049,-1.659244,-1.696796,-1.970924,-1.772119,-0.347088,0.508101,0.829461,-0.234153,-0.556584,-0.555601,-0.46657,-0.383463,0.12068,-0.057346,-0.720676,-0.413208,-0.637294,-0.836673,-0.610489,-0.381788,-0.778091,-0.731636,-0.709701,-0.707053,-0.700906,0.11626,-0.562565,-0.771793,-0.678055,-0.646288,-0.685371,-0.812821,-0.882896,-0.726785,'\'(6.266667-10.533333]\''
-0.72543,-0.729926,-0.748567,-0.725151,-0.755438,-0.598656,-0.605042,-0.609033,-0.572755,-0.783226,-0.406624,-0.687947,-0.594143,-0.751326,-0.094252,-0.641872,-0.431991,-0.228976,0.451938,0.147076,0.028586,-0.515522,-0.527126,'\'(-inf-14.9]\'',0.683302,0.181735,-0.577959,-0.342443,-0.63607,0.38225,-0.52329,1.493083,2.164589,-0.472746,1.416432,1.658945,1.016358,-0.617305,-0.454727,-0.229283,-0.468316,-0.558083,-0.309856,-0.4924,-1.038209,-0.524401,-1.004676,-0.807738,-0.992177,-0.809499,-0.766,-1.014256,-0.761807,-1.467772,-0.657131,-0.699973,-0.654721,-0.870183,-0.582798,-0.69101,0.313735,-0.420762,-0.684435,-0.672287,-0.606309,-0.527736,-0.520263,-0.719424,-0.796701,-0.700259,-0.128352,-0.696184,2.390334,-1.522162,3.446052,3.507977,3.486562,3.401101,3.321552,2.601924,2.409594,2.316776,2.304933,-1.907623,-3.306987,-3.403444,-3.281281,-2.865281,-0.247959,0.548991,0.663587,-0.150602,-0.542796,-0.542808,-0.457566,-0.40738,0.154295,-0.142853,-0.707748,-0.381174,-0.609469,-0.832695,-0.59191,-0.360386,-0.766472,-0.71631,-0.694177,-0.692187,-0.686835,0.156268,-0.537438,-0.764146,-0.670694,-0.637549,-0.675801,-0.807651,-0.881101,-0.72574,'\'(6.266667-10.533333]\''
-0.726791,-0.732502,-0.762371,-0.755114,-0.760848,-0.636617,-0.636764,-0.63333,-0.617982,-0.849263,-0.427697,-0.697106,-0.635245,-0.778864,-0.156523,-0.677729,-0.443619,-0.355507,0.127572,-0.132833,-0.345718,-0.510869,-0.542908,'\'(-inf-14.9]\'',1.06376,0.31174,-0.446423,-0.056535,-0.58383,0.830908,-0.527867,1.339872,2.23194,-0.52074,1.316484,1.50956,0.99159,-0.61208,-0.472314,-0.243582,-0.48624,-0.555279,-0.246419,-0.4924,-1.320475,-0.587639,-0.994185,-0.703973,-1.143691,-0.737899,-0.775187,-1.489512,-1.302178,-1.537901,-1.000218,-1.333162,-0.71227,-0.871218,-0.582283,-0.681914,0.652455,-0.421704,-0.684031,-0.681411,-0.604634,-0.526099,-0.518326,-0.717918,-0.795743,-0.701713,-0.192575,-0.697508,2.510347,-1.544171,3.562579,3.204762,2.843354,2.707252,2.559636,2.07356,1.968851,1.973662,2.215598,-5.812184,-4.849394,-4.470098,-3.989296,-3.206268,-0.250283,0.566783,0.673194,-0.088889,-0.532073,-0.53428,-0.453063,-0.4406,0.204716,-0.193072,-0.698346,-0.36836,-0.603903,-0.829285,-0.583465,-0.351214,-0.755747,-0.706878,-0.687709,-0.682276,-0.680791,0.181838,-0.530862,-0.75985,-0.665787,-0.629902,-0.673067,-0.800476,-0.878665,-0.724702,'\'(6.266667-10.533333]\''
-0.730347,-0.737899,-0.767592,-0.772649,-0.760606,-0.682624,-0.676134,-0.666392,-0.675952,-0.94394,-0.445681,-0.710976,-0.684231,-0.818771,-0.263165,-0.728508,-0.521754,-0.422024,-0.317959,-0.302587,-0.585098,-0.500316,-0.552377,'\'(-inf-14.9]\'',1.585689,0.558303,-0.420893,-0.025902,-0.562631,1.233274,-0.541407,1.205381,2.327842,-0.545696,1.215308,1.360176,0.963849,-0.61699,-0.479173,-0.251406,-0.490871,-0.550138,-0.274932,-0.754184,-1.743873,-0.903829,-1.319415,-0.822562,-1.436618,-0.952699,-1.216149,-1.349575,-1.047886,-1.42102,-0.950496,-1.181554,-0.78003,-1.00047,-0.590016,-0.677877,0.82181,-0.4215,-0.682332,-0.684884,-0.604634,-0.526917,-0.517864,-0.721286,-0.79538,-0.704171,-0.285478,-0.693848,2.33096,-1.514923,1.723116,1.353091,1.357543,1.342145,1.377457,1.460917,1.524666,1.582065,1.86513,-2.199801,-1.283048,-1.119548,-1.040994,-0.393131,-0.329057,0.352396,0.854754,-0.145855,-0.525945,-0.528594,-0.445559,-0.424654,0.204716,-0.221575,-0.688943,-0.361954,-0.595556,-0.825875,-0.57502,-0.329813,-0.746809,-0.697446,-0.679947,-0.672366,-0.671725,0.202348,-0.522921,-0.751946,-0.658426,-0.623348,-0.666232,-0.795993,-0.877772,-0.722379,'\'(6.266667-10.533333]\''
-0.727599,-0.735838,-0.762595,-0.776541,-0.755065,-0.706248,-0.692968,-0.678951,-0.691495,-0.967334,-0.45226,-0.721738,-0.712172,-0.839584,-0.308313,-0.755013,-0.480692,-0.429202,-0.563579,-0.27598,-0.585837,-0.504968,-0.561024,'\'(-inf-14.9]\'',1.111833,0.862022,-0.409793,-0.083764,-0.521748,1.192125,-0.551475,1.074339,2.399585,-0.570653,1.118637,1.230573,0.918275,-0.618658,-0.487966,-0.26013,-0.494933,-0.544529,-0.277806,-0.688738,-1.885006,-0.967068,-0.613875,-0.540913,-0.881067,-0.082484,-0.87624,-0.671015,-0.809487,-1.11713,-0.244431,-0.52161,-0.753118,-0.949175,-0.591706,-0.674686,0.906488,-0.420619,-0.679488,-0.683354,-0.604056,-0.527372,-0.51768,-0.722326,-0.794971,-0.705784,-0.38379,-0.688473,2.077542,-1.469176,1.304174,0.993943,0.871921,0.906473,1.00557,1.221047,1.386934,1.429156,1.707076,-1.827939,-0.703704,-0.423085,-0.459787,0.133392,-0.352457,0.246314,0.921221,-0.252667,-0.515222,-0.517223,-0.433553,-0.416682,0.204716,-0.23379,-0.679541,-0.352343,-0.596947,-0.823034,-0.568264,-0.317584,-0.734297,-0.686835,-0.674772,-0.662455,-0.664308,0.228592,-0.516472,-0.745903,-0.647385,-0.615701,-0.655295,-0.791455,-0.866967,-0.720071,'\'(6.266667-10.533333]\''
-0.719056,-0.74018,-0.753403,-0.759529,-0.746532,-0.719113,-0.691074,-0.676481,-0.690858,-0.968776,-0.449814,-0.72172,-0.736489,-0.861884,-0.374344,-0.771294,-0.386976,-0.475241,-0.725246,-0.269062,-0.623425,-0.493135,-0.557276,'\'(-inf-14.9]\'',1.179134,0.792537,-0.279367,0.127263,-0.437709,0.968848,-0.559713,0.941326,2.294166,-0.598809,1.030978,1.129619,0.852887,-0.618375,-0.491659,-0.263007,-0.49783,-0.539388,-0.282889,-0.81963,-1.602741,-1.030306,-0.422409,-0.73362,-0.820461,0.143331,-0.517958,-0.298731,-0.841274,-0.462598,-0.050512,-0.093539,-0.687638,-0.855006,-0.582879,-0.669776,0.652455,-0.419615,-0.676745,-0.673053,-0.603478,-0.527918,-0.518233,-0.721064,-0.794077,-0.705685,-0.481529,-0.684423,1.911827,-1.42524,1.182098,1.035157,1.190309,1.15174,1.15372,1.324775,1.548769,1.611901,1.68646,-0.592823,-0.131885,0.147889,0.031596,0.323943,-0.373373,0.278193,0.994355,-0.249344,-0.493774,-0.495902,-0.423048,-0.356887,0.204716,-0.198501,-0.678366,-0.342733,-0.591382,-0.820192,-0.55813,-0.311469,-0.738765,-0.688014,-0.66701,-0.661216,-0.65512,0.238476,-0.504687,-0.738657,-0.64125,-0.610239,-0.647092,-0.787514,-0.865678,-0.716717,'\'(6.266667-10.533333]\''
-0.716634,-0.735691,-0.752122,-0.749689,-0.742389,-0.71338,-0.684885,-0.672682,-0.680894,-0.95603,-0.44357,-0.723565,-0.731448,-0.855064,-0.317309,-0.760053,-0.335485,-0.559306,-0.662912,-0.260015,-0.604657,-0.494821,-0.556355,'\'(-inf-14.9]\'',1.120074,0.614339,-0.186681,0.333185,-0.402882,0.82366,-0.551539,1.021134,2.275864,-0.582172,1.087506,1.186917,0.906386,-0.615322,-0.485856,-0.250237,-0.492433,-0.533779,-0.284658,-0.688738,-1.461608,-0.777353,0.015603,-0.570561,-0.608341,0.374653,0.336406,-0.013577,-0.777701,-0.415846,0.188158,0.370205,-0.701176,-0.945977,-0.578592,-0.66623,0.483099,-0.41855,-0.674053,-0.669697,-0.604345,-0.530192,-0.520817,-0.716871,-0.793274,-0.705582,-0.547029,-0.681541,1.811302,-1.398085,1.343016,1.376642,1.534425,1.587413,1.634453,1.74941,1.841449,1.824482,1.858258,0.74854,0.417362,0.317298,0.026313,0.283827,-0.337792,0.3057,0.988865,-0.216588,-0.478455,-0.480267,-0.40804,-0.298422,0.154295,-0.163212,-0.671314,-0.326716,-0.583034,-0.817919,-0.54124,-0.274782,-0.738765,-0.683298,-0.657954,-0.655022,-0.6452,0.276022,-0.4909,-0.732385,-0.631436,-0.600408,-0.636156,-0.784926,-0.865294,-0.713173,'\'(6.266667-10.533333]\''
-0.71164,-0.731422,-0.751898,-0.720727,-0.741033,-0.68332,-0.658098,-0.649063,-0.654528,-0.893127,-0.453299,-0.705928,-0.700398,-0.840844,-0.254531,-0.732431,-0.365539,-0.504413,-0.468656,-0.172211,-0.502285,-0.495039,-0.548037,'\'(-inf-14.9]\'',0.756097,0.563906,-0.105095,0.522089,-0.375627,0.611138,-0.54794,1.056111,2.396656,-0.566814,1.100204,1.214884,0.896479,-0.613968,-0.481459,-0.238546,-0.488825,-0.52817,-0.30234,-0.557846,-1.461608,-0.714115,0.107401,-0.1555,0.230036,0.148838,0.014871,0.29534,-0.555195,-0.205461,0.635664,0.325614,-0.625022,-0.885495,-0.569392,-0.661893,0.229058,-0.417403,-0.67195,-0.670168,-0.603767,-0.529464,-0.520633,-0.712736,-0.792569,-0.704991,-0.620204,-0.679204,1.739794,-1.375777,1.692597,1.788778,1.901054,1.961768,2.021457,2.002247,1.982625,1.966203,2.047236,0.775102,0.056213,-0.216029,-0.438652,-0.072203,-0.34829,0.211641,1.049254,-0.190479,-0.472327,-0.476003,-0.402037,-0.279819,0.087066,-0.180857,-0.663087,-0.307496,-0.570512,-0.813941,-0.526039,-0.238094,-0.734297,-0.675045,-0.646311,-0.645112,-0.634089,0.312015,-0.479464,-0.723822,-0.624075,-0.594946,-0.627953,-0.78229,-0.865026,-0.71087,'\'(6.266667-10.533333]\''
-0.701603,-0.71658,-0.738414,-0.691405,-0.731191,-0.660067,-0.636087,-0.62593,-0.635025,-0.868117,-0.441133,-0.689317,-0.677436,-0.811803,-0.221647,-0.70248,-0.407414,-0.557404,-0.257474,-0.165826,-0.509667,-0.485454,-0.540146,'\'(-inf-14.9]\'',0.874218,0.486575,-0.10676,0.357011,-0.304459,0.401889,-0.539198,1.096015,2.476452,-0.560414,1.125191,1.251719,0.903414,-0.607798,-0.477941,-0.231711,-0.48678,-0.518823,-0.289962,-0.426954,-1.320475,-0.587639,0.243788,-0.837385,-0.032588,0.815268,0.042431,-0.016217,-0.571088,-0.193773,0.183186,0.084824,-0.597206,-0.842531,-0.560849,-0.657897,-0.024976,-0.416543,-0.670132,-0.673053,-0.6029,-0.529009,-0.520171,-0.706349,-0.79137,-0.703637,-0.694111,-0.676322,1.640338,-1.347722,2.230841,2.245072,2.335219,2.303852,2.314734,2.080043,2.065264,2.074358,2.229342,-0.513138,-1.222856,-1.282684,-1.310462,-0.779248,-0.330019,0.16119,1.079253,-0.169591,-0.461604,-0.468896,-0.38853,-0.255901,0.087066,-0.144211,-0.653684,-0.285073,-0.560773,-0.810531,-0.514216,-0.210578,-0.725359,-0.664434,-0.639843,-0.635201,-0.624383,0.321528,-0.469394,-0.715287,-0.61426,-0.586207,-0.617016,-0.778665,-0.864657,-0.709177,'\'(6.266667-10.533333]\''
-0.69878,-0.710472,-0.741457,-0.690451,-0.727653,-0.629171,-0.614009,-0.606758,-0.622881,-0.832107,-0.451958,-0.67532,-0.641153,-0.784173,-0.157034,-0.672366,-0.442528,-0.497757,-0.047109,-0.074297,-0.435855,-0.480364,-0.53265,'\'(-inf-14.9]\'',0.750603,0.435021,-0.093995,0.271919,-0.24919,0.28312,-0.531086,1.150698,2.608226,-0.561694,1.164105,1.313792,0.907377,-0.603203,-0.473017,-0.221999,-0.481411,-0.512279,-0.288857,-0.361507,-1.179342,-0.524401,0.209692,-0.822562,0.27044,0.462776,0.226165,0.028668,-0.698234,-0.415846,0.297548,0.272106,-0.628051,-0.931701,-0.558665,-0.654188,-0.024976,-0.416195,-0.668281,-0.677055,-0.602265,-0.529464,-0.521279,-0.697176,-0.790123,-0.703344,-0.753884,-0.672038,1.493081,-1.304535,3.074276,3.028132,3.013804,2.907339,2.816631,2.394468,2.38549,2.320505,2.370217,-2.34589,-2.780311,-2.60659,-2.567982,-2.098062,-0.278651,0.198659,1.035333,-0.087465,-0.452412,-0.458946,-0.378025,-0.238627,0.087066,-0.160498,-0.643107,-0.272259,-0.549643,-0.808258,-0.502393,-0.183062,-0.715528,-0.655002,-0.630787,-0.624052,-0.614432,0.349324,-0.45853,-0.707555,-0.604445,-0.577468,-0.604712,-0.778383,-0.865525,-0.706142,'\'(6.266667-10.533333]\''
-0.69308,-0.705149,-0.733738,-0.686909,-0.727122,-0.616732,-0.607776,-0.604212,-0.622014,-0.851906,-0.432637,-0.671458,-0.624408,-0.780669,-0.10251,-0.665149,-0.416819,-0.446986,-0.023427,-0.157311,-0.436265,-0.487108,-0.529723,'\'(-inf-14.9]\'',0.683302,0.139147,-0.05126,0.379135,-0.238591,0.270962,-0.5249,1.179764,2.720965,-0.557855,1.18008,1.336984,0.912331,-0.59889,-0.466334,-0.210667,-0.475815,-0.505268,-0.292836,-0.296061,-0.897076,-0.397925,0.136252,-0.555737,-0.153799,0.760191,-0.306664,-0.325134,-0.904847,-0.532727,0.133463,-0.42351,-0.590222,-0.837127,-0.549605,-0.631453,0.313735,-0.416645,-0.667608,-0.684531,-0.601456,-0.529919,-0.521463,-0.691408,-0.789173,-0.702061,-0.795373,-0.673752,1.578139,-1.320414,3.920484,3.8789,3.579827,3.27524,3.037345,2.530611,2.440583,2.410013,2.542015,-5.42704,-4.759106,-4.419903,-4.0527,-3.376761,-0.23105,0.162833,0.940828,-0.038094,-0.446284,-0.45326,-0.364518,-0.249257,0.12068,-0.199858,-0.633704,-0.265852,-0.539904,-0.805416,-0.493948,-0.17389,-0.705696,-0.644391,-0.623025,-0.614141,-0.606434,0.360288,-0.447889,-0.701426,-0.597084,-0.570913,-0.597877,-0.77596,-0.863844,-0.704918,'\'(6.266667-10.533333]\''
-0.696889,-0.70873,-0.73345,-0.678156,-0.716844,-0.62873,-0.608824,-0.604665,-0.621985,-0.859626,-0.425671,-0.67066,-0.644491,-0.789887,-0.136159,-0.672742,-0.434645,-0.201387,-0.11988,-0.203608,-0.532325,-0.466064,-0.519169,'\'(-inf-14.9]\'',0.986845,0.25122,-0.060695,0.152791,-0.150767,0.28499,-0.52206,1.164985,2.820527,-0.584091,1.17967,1.342441,0.903414,-0.595113,-0.46053,-0.204012,-0.470844,-0.49779,-0.295709,-0.165169,-1.038209,-0.397925,0.306736,-0.244441,0.230036,0.85933,-0.416905,-0.399063,-0.952527,-0.672984,0.068823,-0.42351,-0.630431,-0.763899,-0.547665,-0.627184,0.14438,-0.416072,-0.666414,-0.689711,-0.602785,-0.5291,-0.520356,-0.690897,-0.78833,-0.701518,-0.822529,-0.674141,1.61976,-1.322191,3.970424,3.440269,3.428673,3.094516,2.795467,2.375019,2.347614,2.260833,2.504219,-6.72856,-5.255686,-4.702253,-4.359154,-3.522181,-0.201399,0.092297,1.052587,-0.066103,-0.430965,-0.440468,-0.346508,-0.239956,0.154295,-0.214788,-0.624302,-0.262649,-0.516252,-0.80087,-0.482125,-0.164719,-0.698546,-0.634959,-0.611382,-0.60423,-0.59453,0.379246,-0.43299,-0.69209,-0.588497,-0.561082,-0.589674,-0.773118,-0.863599,-0.70341,'\'(6.266667-10.533333]\''
-0.700177,-0.712557,-0.736204,-0.684119,-0.711035,-0.636469,-0.620469,-0.614412,-0.627585,-0.863531,-0.432136,-0.681252,-0.648638,-0.79406,-0.153235,-0.681555,-0.490359,-0.304654,-0.226235,-0.169551,-0.505741,-0.45932,-0.51141,'\'(-inf-14.9]\'',0.944266,0.338638,-0.08567,0.106841,-0.164395,0.358636,-0.519787,1.148235,2.890806,-0.59497,1.16902,1.323341,0.905396,-0.591776,-0.452792,-0.195019,-0.462208,-0.492182,-0.298804,-0.557846,-1.179342,-0.587639,-0.482734,-1.074563,-0.759856,0.220438,-0.701693,-0.45715,-0.809487,-0.906745,0.043962,-0.477019,-0.627456,-0.918866,-0.546794,-0.620652,0.229058,-0.415355,-0.664428,-0.691712,-0.603998,-0.530646,-0.521832,-0.690074,-0.787547,-0.700231,-0.838513,-0.677724,1.793677,-1.356466,3.096471,3.119391,3.354704,3.084835,2.943617,2.582475,2.561099,2.462226,2.621042,-1.894343,-2.404114,-2.336789,-2.409471,-1.772119,-0.105395,0.125476,0.839264,-0.030499,-0.41871,-0.429097,-0.339005,-0.229326,0.154295,-0.244648,-0.614899,-0.246632,-0.485644,-0.79746,-0.465235,-0.158604,-0.69229,-0.624348,-0.595858,-0.593081,-0.581863,0.39952,-0.409356,-0.684701,-0.584816,-0.55562,-0.584206,-0.769719,-0.863012,-0.701979,'\'(6.266667-10.533333]\''
-0.69646,-0.708804,-0.733002,-0.699001,-0.708285,-0.626961,-0.612543,-0.604803,-0.629501,-0.84368,-0.453403,-0.672169,-0.638411,-0.792168,-0.132574,-0.676135,-0.531166,-0.397034,-0.218573,-0.173808,-0.496479,-0.449609,-0.498916,'\'(-inf-14.9]\'',1.00058,0.35657,-0.12341,0.038768,-0.185594,0.259272,-0.516473,1.190109,2.988904,-0.570013,1.182947,1.342441,0.91134,-0.591146,-0.449099,-0.189354,-0.459282,-0.487975,-0.31074,-0.296061,-1.179342,-0.461163,-0.325365,-0.570561,-0.426525,0.187392,-0.71088,-0.499395,-0.714128,-0.708048,-0.144985,-0.485938,-0.604609,-0.806773,-0.544575,-0.616792,0.313735,-0.414495,-0.661416,-0.687121,-0.603536,-0.530828,-0.52174,-0.688496,-0.786592,-0.698469,-0.86177,-0.673985,1.66633,-1.315125,2.755213,2.663097,2.89481,2.684662,2.683598,2.582475,2.536996,2.454767,2.610734,-1.402952,-1.47867,-1.608954,-1.770144,-1.170379,-0.121663,0.155932,0.71731,-0.063729,-0.401858,-0.41204,-0.323997,-0.234641,0.154295,-0.250077,-0.607848,-0.233819,-0.470339,-0.793482,-0.45679,-0.158604,-0.686034,-0.616095,-0.586803,-0.585648,-0.573041,0.406705,-0.394839,-0.678572,-0.575002,-0.550158,-0.576003,-0.761014,-0.860378,-0.700835,'\'(6.266667-10.533333]\''
-0.698631,-0.709883,-0.736941,-0.698205,-0.711219,-0.6349,-0.602836,-0.591798,-0.622091,-0.824888,-0.457129,-0.66161,-0.659867,-0.786499,-0.125141,-0.666537,-0.526408,-0.448882,-0.177858,-0.176468,-0.477961,-0.437994,-0.48297,'\'(-inf-14.9]\'',0.80417,0.365536,-0.148385,0.106841,-0.249947,0.272131,-0.514169,1.164492,1.986695,-0.558495,1.209163,1.379275,0.921247,-0.587212,-0.439778,-0.175234,-0.448772,-0.481432,-0.317813,-0.296061,-1.461608,-0.397925,-0.183732,-0.689149,-0.719452,0.407699,-0.242357,-0.480912,-0.666448,-1.082066,-0.095262,-0.254066,-0.579844,-0.772231,-0.540342,-0.615387,0.229058,-0.412774,-0.657613,-0.678291,-0.602034,-0.530282,-0.521463,-0.683414,-0.785582,-0.697396,-0.853528,-0.673051,1.65333,-1.300254,3.038208,2.845614,3.00094,2.891203,2.86803,2.770481,2.72982,2.659889,2.686325,-1.947466,-1.809723,-1.897578,-2.018477,-1.571539,-0.079912,0.217179,0.606335,-0.065628,-0.386539,-0.396405,-0.305988,-0.229326,0.154295,-0.235147,-0.601971,-0.221005,-0.471731,-0.788935,-0.455101,-0.155547,-0.67799,-0.610201,-0.581628,-0.580693,-0.567486,0.442597,-0.395824,-0.673016,-0.568867,-0.544696,-0.565067,-0.756888,-0.858889,-0.699418,'\'(6.266667-10.533333]\''
-0.695111,-0.705713,-0.736429,-0.708293,-0.714541,-0.6242,-0.589531,-0.579994,-0.594663,-0.800489,-0.430308,-0.661654,-0.651845,-0.783001,-0.102785,-0.658118,-0.468619,-0.49335,-0.146993,-0.200947,-0.547965,-0.428721,-0.483233,'\'(-inf-14.9]\'',1.111833,0.542612,-0.153936,0.060892,-0.237077,0.300888,-0.513759,1.163014,2.078205,-0.603929,1.231692,1.403149,0.941062,-0.586708,-0.43714,-0.171547,-0.444823,-0.477225,-0.331517,-0.296061,-1.038209,-0.334687,-0.760754,-0.73362,-0.982076,-0.335838,-0.756813,-0.525798,-0.952527,-1.304139,-0.080345,-0.102457,-0.580483,-0.860995,-0.537527,-0.610109,0.398413,-0.413327,-0.656772,-0.682353,-0.601572,-0.530101,-0.522109,-0.676517,-0.78409,-0.696052,-0.86988,-0.675154,1.762327,-1.318141,3.815055,3.728764,3.840326,3.485008,3.436444,2.977937,2.874439,2.823987,2.820328,-3.169301,-3.434893,-3.390895,-3.265429,-2.780035,-0.006026,0.273163,0.435951,-0.018156,-0.381943,-0.393562,-0.299984,-0.234641,0.154295,-0.227004,-0.594919,-0.217802,-0.464774,-0.784957,-0.448345,-0.124974,-0.668159,-0.600769,-0.576453,-0.57326,-0.561747,0.477208,-0.397507,-0.666916,-0.56396,-0.537049,-0.558231,-0.753956,-0.857603,-0.69837,'\'(6.266667-10.533333]\''
-0.68862,-0.697446,-0.728998,-0.712032,-0.71043,-0.614348,-0.597574,-0.590514,-0.614413,-0.814035,-0.453223,-0.665487,-0.628472,-0.785893,-0.115367,-0.666122,-0.421113,-0.573122,-0.246895,-0.186579,-0.525426,-0.454511,-0.507892,'\'(-inf-14.9]\'',1.017062,0.328551,-0.13784,0.154493,-0.256761,0.378509,-0.507636,1.232969,3.203401,-0.624406,1.241114,1.413381,0.948988,-0.585071,-0.432919,-0.164892,-0.441613,-0.475823,-0.340137,-0.426954,-1.179342,-0.461163,-1.009922,-1.015269,-1.163893,-0.550638,-0.931361,-1.045939,-0.984313,-1.397644,-0.637242,-0.771318,-0.579448,-0.844918,-0.536644,-0.605009,0.483099,-0.413225,-0.655745,-0.688063,-0.601167,-0.530192,-0.522017,-0.671456,-0.782874,-0.695558,-0.917242,-0.674686,1.767451,-1.313464,3.975973,3.363729,3.335408,3.097744,3.031298,2.757515,2.657511,2.611406,2.768788,-5.719218,-4.38291,-4.150102,-3.873054,-3.146093,0.000385,0.308342,0.211256,-0.00344,-0.374284,-0.387876,-0.295482,-0.220025,0.087066,-0.236505,-0.585517,-0.211395,-0.457818,-0.779842,-0.4399,-0.100515,-0.658327,-0.592516,-0.569985,-0.563349,-0.556619,0.497482,-0.396046,-0.661904,-0.555372,-0.52394,-0.552763,-0.748938,-0.856187,-0.697236,'\'(6.266667-10.533333]\''
-0.670812,-0.683487,-0.731272,-0.708783,-0.706903,-0.601983,-0.583067,-0.576366,-0.594306,-0.805416,-0.425203,-0.66395,-0.618511,-0.788776,-0.109266,-0.662672,-0.372364,-0.554716,-0.25518,-0.203608,-0.495751,-0.449516,-0.494905,'\'(-inf-14.9]\'',0.971736,0.334155,-0.184461,0.074506,-0.284774,0.367988,-0.504132,1.238881,3.412774,-0.632085,1.239475,1.404514,0.957905,-0.581955,-0.429401,-0.160306,-0.439312,-0.470682,-0.336601,-0.361507,-1.038209,-0.524401,-1.020413,-0.288912,-1.093186,-0.815007,-1.041601,-1.154192,-0.841274,-1.584653,-0.622325,-1.10129,-0.579668,-0.825958,-0.533426,-0.598844,0.483099,-0.412877,-0.653794,-0.692477,-0.599954,-0.529646,-0.521186,-0.666899,-0.782105,-0.694053,-1.012028,-0.677179,1.901982,-1.341642,3.959326,3.56391,3.406161,3.307512,3.291317,3.029801,2.936418,2.846364,2.895919,-4.497383,-3.705755,-3.604226,-3.508479,-2.93047,0.019538,0.389016,0.014991,0.027891,-0.37122,-0.386455,-0.292481,-0.218696,0.087066,-0.228361,-0.573764,-0.198581,-0.446688,-0.773591,-0.428077,-0.072999,-0.645815,-0.579547,-0.560929,-0.550961,-0.548836,0.516406,-0.389979,-0.654916,-0.548011,-0.511924,-0.547294,-0.743349,-0.854187,-0.697505,'\'(6.266667-10.533333]\''
-0.666253,-0.676863,-0.72429,-0.714453,-0.699663,-0.604396,-0.585474,-0.575564,-0.594854,-0.815855,-0.416735,-0.665656,-0.620788,-0.787062,-0.134203,-0.663133,-0.475647,-0.371616,-0.293974,-0.220104,-0.537534,-0.444239,-0.495036,'\'(-inf-14.9]\'',0.989592,0.422693,-0.142835,0.069401,-0.22572,0.458936,-0.505268,1.217205,3.529174,-0.645523,1.224319,1.388143,0.945025,-0.581703,-0.427819,-0.157968,-0.437295,-0.46741,-0.350968,-0.361507,-1.179342,-0.461163,-1.285318,-0.955974,-1.305306,-0.908637,-1.206962,-1.275647,-0.888953,-1.66647,-0.771493,-1.154799,-0.602912,-0.835235,-0.534206,-0.59448,0.567777,-0.412877,-0.651707,-0.692772,-0.599896,-0.529646,-0.520909,-0.661129,-0.780805,-0.693848,-1.067767,-0.676789,1.914459,-1.338252,3.620843,3.631618,3.586259,3.559234,3.593664,3.279396,3.163676,3.036568,2.95433,-1.549041,-2.208492,-2.424631,-2.5944,-2.233454,0.076996,0.398921,-0.08971,0.087231,-0.369688,-0.386455,-0.284977,-0.231983,0.087066,-0.182214,-0.565537,-0.182565,-0.441122,-0.768476,-0.421321,-0.048541,-0.636877,-0.570115,-0.553167,-0.542289,-0.540716,0.533475,-0.383879,-0.647498,-0.539423,-0.504277,-0.536358,-0.732007,-0.85277,-0.697617,'\'(6.266667-10.533333]\''
-0.668037,-0.678164,-0.73156,-0.724155,-0.701582,-0.613552,-0.588736,-0.579961,-0.613869,-0.850816,-0.419011,-0.66487,-0.634035,-0.795317,-0.147828,-0.669256,-0.550794,-0.399249,-0.376879,-0.327598,-0.641473,-0.457696,-0.515586,'\'(-inf-14.9]\'',1.227206,0.464161,-0.131735,0.188529,-0.263575,0.566716,-0.508046,1.193558,3.604578,-0.660881,1.209573,1.369043,0.937099,-0.582962,-0.430457,-0.160755,-0.438914,-0.466008,-0.36843,-0.557846,-1.602741,-0.714115,-1.36138,-0.837385,-1.507325,-0.919653,-1.344763,-1.38654,-1.206819,-1.713222,-0.826188,-1.217226,-0.613928,-0.882838,-0.533382,-0.588943,0.737132,-0.412856,-0.649738,-0.695833,-0.600705,-0.53001,-0.521371,-0.659159,-0.779858,-0.690578,-1.026046,-0.685591,2.365562,-1.427757,3.079824,3.296021,3.32576,3.365601,3.533195,3.399331,3.294521,3.260337,3.153616,0.775102,-0.462938,-0.962687,-1.247058,-0.964784,-0.041206,0.360838,-0.100886,-0.019106,-0.36356,-0.380769,-0.284977,-0.249257,0.087066,-0.183571,-0.554959,-0.176158,-0.431383,-0.76393,-0.411187,-0.02714,-0.625258,-0.558325,-0.545405,-0.53114,-0.532811,0.552669,-0.377081,-0.640596,-0.532062,-0.497723,-0.528155,-0.71726,-0.843759,-0.69705,'\'(6.266667-10.533333]\''
-0.672633,-0.682849,-0.737454,-0.743188,-0.707823,-0.628231,-0.591766,-0.573845,-0.601088,-0.858403,-0.389357,-0.667486,-0.657001,-0.813589,-0.208222,-0.686858,-0.430963,-0.419188,-0.549374,-0.434559,-0.77044,-0.434903,-0.505262,'\'(-inf-14.9]\'',1.451086,0.609856,-0.108425,0.22597,-0.248433,0.658131,-0.511107,1.115228,3.634593,-0.67112,1.149768,1.29401,0.901433,-0.58101,-0.434326,-0.158687,-0.442693,-0.466475,-0.36003,-0.4924,-1.602741,-0.714115,-1.461048,-0.852209,-1.2447,-1.398821,-1.124282,-1.692816,-1.047886,-1.830103,-1.248833,-1.493689,-0.654633,-0.878064,-0.538011,-0.585875,0.991166,-0.412569,-0.64708,-0.689299,-0.600532,-0.529919,-0.521002,-0.655346,-0.779052,-0.690183,-1.021766,-0.684423,2.33186,-1.413563,2.860643,2.930986,2.952699,3.010609,3.188519,3.230774,3.235985,3.226772,3.218899,0.310273,-0.259792,-0.573672,-0.877199,-0.473363,-0.151634,0.381023,-0.049712,-0.009137,-0.357432,-0.376505,-0.283476,-0.269189,0.053451,-0.209359,-0.551433,-0.166548,-0.418862,-0.759383,-0.409498,-0.036312,-0.62079,-0.554788,-0.538937,-0.527424,-0.526858,0.573989,-0.375048,-0.634782,-0.524701,-0.486799,-0.524054,-0.711349,-0.842489,-0.696097,'\'(6.266667-10.533333]\''
-0.671255,-0.682089,-0.739535,-0.753868,-0.708548,-0.650129,-0.603067,-0.58311,-0.606246,-0.884126,-0.375236,-0.682611,-0.685948,-0.836029,-0.259191,-0.708503,-0.432835,-0.396666,-0.75236,-0.440945,-0.822855,-0.428284,-0.510884,'\'(-inf-14.9]\'',1.665352,0.784692,-0.085115,0.28213,-0.241619,0.746741,-0.517704,1.028523,3.705604,-0.689677,1.085458,1.203288,0.877655,-0.582049,-0.441888,-0.160216,-0.452834,-0.466008,-0.358041,-0.4924,-1.885006,-0.840591,-1.555469,-1.193152,-1.487123,-1.013283,-1.666298,-1.647931,-1.333965,-1.830103,-0.990274,-1.645298,-0.66956,-0.896528,-0.543155,-0.578606,1.160529,-0.411975,-0.644673,-0.684943,-0.599261,-0.529737,-0.520263,-0.650016,-0.778222,-0.689101,-1.038249,-0.682008,2.23688,-1.388442,2.369564,2.139094,2.0908,2.197354,2.290547,2.57275,2.629965,2.786692,2.97151,-1.283425,-0.455414,-0.567397,-0.565461,0.05316,-0.230649,0.297905,0.071459,-0.083667,-0.352836,-0.373662,-0.281975,-0.28912,0.087066,-0.231076,-0.546732,-0.166548,-0.409123,-0.754268,-0.40612,-0.033254,-0.61364,-0.548893,-0.532468,-0.522468,-0.519777,0.59126,-0.373047,-0.627308,-0.518567,-0.474783,-0.52132,-0.70837,-0.840565,-0.696172,'\'(6.266667-10.533333]\''
-0.672011,-0.682874,-0.73281,-0.771615,-0.706603,-0.670337,-0.620084,-0.600907,-0.634587,-0.94634,-0.369365,-0.69541,-0.707487,-0.856497,-0.371161,-0.736669,-0.411914,-0.40923,-1.004755,-0.526088,-0.901178,-0.4384,-0.529362,'\'(-inf-14.9]\'',1.85352,0.985304,-0.06902,0.283832,-0.22042,0.930272,-0.526415,0.920635,3.715853,-0.710155,1.009268,1.10097,0.841988,-0.583843,-0.450858,-0.166961,-0.460163,-0.464138,-0.359146,-0.688738,-1.885006,-0.967068,-1.364003,-0.852209,-1.426517,-0.870083,-1.500937,-1.521196,-1.286285,-1.795038,-0.811272,-1.591789,-0.703038,-1.004028,-0.550757,-0.581169,1.329885,-0.410869,-0.641409,-0.67629,-0.597239,-0.528827,-0.519341,-0.644082,-0.777107,-0.689681,-1.065063,-0.681307,2.228646,-1.380303,2.108765,2.127319,2.087584,2.268352,2.42358,2.644063,2.743593,2.790421,3.026485,0.549328,0.417362,0.229456,-0.06351,0.604755,-0.207169,0.256583,0.073027,-0.093636,-0.346709,-0.367977,-0.280474,-0.301079,0.053451,-0.265007,-0.543206,-0.156938,-0.40634,-0.75029,-0.402742,-0.021025,-0.609171,-0.545356,-0.527294,-0.519991,-0.515687,0.602865,-0.370411,-0.623556,-0.516114,-0.471505,-0.519953,-0.707683,-0.840523,-0.696161,'\'(6.266667-10.533333]\''
-0.674695,-0.685548,-0.734763,-0.778735,-0.71155,-0.708121,-0.66871,-0.649716,-0.68482,-0.98565,-0.423168,-0.731019,-0.734535,-0.878576,-0.375331,-0.77817,-0.353429,-0.4785,-1.359451,-0.533538,-0.91954,-0.432874,-0.527816,'\'(-inf-14.9]\'',1.819183,1.080566,-0.049595,0.317869,-0.209064,0.856392,-0.536831,0.775799,3.673392,-0.779265,0.937175,1.021844,0.782544,-0.584977,-0.455254,-0.176044,-0.460845,-0.463203,-0.366219,-1.997658,-2.026139,-2.16859,-1.539732,-1.534095,-1.638637,-0.770945,-1.666298,-1.526476,-1.572364,-2.075552,-0.607408,-1.600707,-0.662311,-0.872885,-0.549337,-0.528731,2.261348,-0.40964,-0.638902,-0.670522,-0.597759,-0.527645,-0.518972,-0.63847,-0.776079,-0.686364,-1.01805,-0.68637,2.51155,-1.429159,2.344594,2.412871,2.547478,2.691116,2.86803,2.98442,3.04316,3.144723,3.215463,1.372739,0.567841,0.242005,-0.010673,0.45432,-0.183929,0.314527,0.039107,-0.058032,-0.337517,-0.359448,-0.274471,-0.28912,0.014795,-0.290795,-0.53968,-0.156938,-0.402166,-0.746312,-0.401053,-0.01491,-0.604702,-0.541819,-0.522119,-0.516274,-0.507781,0.619091,-0.366344,-0.61568,-0.492804,-0.432179,-0.496712,-0.709393,-0.837254,-0.696771,'\'(6.266667-10.533333]\''
-0.669618,-0.680641,-0.724803,-0.757249,-0.699611,-0.671251,-0.610059,-0.590688,-0.609407,-0.935418,-0.33437,-0.699921,-0.717005,-0.867244,-0.275716,-0.731692,-0.350901,-0.537361,-1.026445,-0.597928,-0.987432,-0.421071,-0.525515,'\'(-inf-14.9]\'',1.659858,1.134362,0.144102,0.753539,-0.138653,0.849612,-0.536894,0.775306,3.684374,-0.739591,0.91014,0.981599,0.775609,-0.585008,-0.454375,-0.182968,-0.454794,-0.462269,-0.37285,-0.4924,-1.885006,-0.714115,-1.479407,-0.970798,-1.951766,-0.600207,-1.804099,-1.489512,-1.333965,-2.098928,-0.602435,-1.600707,-0.662807,-0.896033,-0.552541,-0.533832,1.922637,-0.409804,-0.638212,-0.671463,-0.599087,-0.529373,-0.521002,-0.631213,-0.774855,-0.6855,-1.043481,-0.688551,2.656405,-1.449636,2.777409,2.836783,2.933403,2.942838,2.991993,2.948764,2.988067,3.178289,3.242951,-0.154556,-0.688657,-0.837198,-0.787376,-0.287826,-0.146506,0.418525,-0.037359,0.043557,-0.339049,-0.359448,-0.275972,-0.285134,-0.062182,-0.303011,-0.536154,-0.147328,-0.409123,-0.742902,-0.397675,0.003433,-0.601127,-0.539461,-0.518238,-0.512558,-0.503752,0.627085,-0.362787,-0.612129,-0.501392,-0.457304,-0.503547,-0.709207,-0.838007,-0.69506,'\'(6.266667-10.533333]\''
-0.670436,-0.681721,-0.72602,-0.756157,-0.703832,-0.683694,-0.624991,-0.604121,-0.624874,-0.940809,-0.357011,-0.710229,-0.726774,-0.873797,-0.309929,-0.743818,-0.416399,-0.523797,-1.14978,-0.646353,-1.032023,-0.417949,-0.528474,'\'(-inf-14.9]\'',1.780725,1.117551,0.258988,0.971374,-0.078842,0.95599,-0.540965,0.702888,3.698283,-0.754309,0.859347,0.922936,0.737961,-0.584442,-0.45543,-0.186116,-0.453203,-0.458997,-0.369977,-0.688738,-2.026139,-1.030306,-1.308924,-0.837385,-1.739646,-0.638761,-1.418257,-1.270366,-1.206819,-1.818414,-0.507962,-1.315326,-0.633449,-0.881261,-0.549926,-0.532618,2.007315,-0.40964,-0.636193,-0.663988,-0.599838,-0.531283,-0.522663,-0.62718,-0.773357,-0.685175,-1.0482,-0.691433,2.85141,-1.473531,2.749664,2.621883,2.67612,2.671753,2.756162,2.76724,2.7918,2.920954,3.119256,-1.057651,-1.034758,-1.132097,-1.099114,-0.418203,-0.148349,0.477184,-0.11912,0.074414,-0.339049,-0.362291,-0.281975,-0.28912,-0.165714,-0.36273,-0.536154,-0.137717,-0.414688,-0.738356,-0.399364,0.006491,-0.600233,-0.539461,-0.516944,-0.513797,-0.500302,0.630223,-0.36644,-0.606745,-0.495258,-0.45075,-0.499446,-0.705383,-0.837116,-0.694309,'\'(6.266667-10.533333]\''
-0.662039,-0.674018,-0.725379,-0.754612,-0.701708,-0.700585,-0.637475,-0.616241,-0.627173,-0.914684,-0.38505,-0.723725,-0.746167,-0.879696,-0.347167,-0.756706,-0.355533,-0.485941,-1.277275,-0.712871,-1.097632,-0.410049,-0.53163,'\'(-inf-14.9]\'',1.856267,1.252039,0.326144,0.933933,0.029424,1.098606,-0.549929,0.595493,3.554065,-0.770307,0.788072,0.831532,0.698331,-0.586519,-0.460003,-0.198617,-0.451243,-0.459464,-0.373071,-0.81963,-2.167272,-1.030306,-1.345643,-1.030092,-1.123489,-0.820514,-1.684671,-1.278287,-1.159139,-1.736598,-0.458239,-1.520443,-0.654776,-0.900672,-0.550995,-0.530027,2.091993,-0.408739,-0.633265,-0.656748,-0.598394,-0.530919,-0.522386,-0.618422,-0.77244,-0.684143,-1.071478,-0.687149,2.622316,-1.431232,2.8218,2.698423,2.682552,2.681434,2.765232,2.773723,2.795243,2.8762,3.105513,-1.36311,-1.215332,-1.288958,-1.299895,-0.568638,-0.089208,0.505693,-0.184411,0.096725,-0.335985,-0.36087,-0.284977,-0.282476,0.001349,-0.379017,-0.532628,-0.131311,-0.432775,-0.733241,-0.402742,0.021777,-0.592189,-0.535924,-0.516944,-0.51008,-0.499631,0.641186,-0.377812,-0.602735,-0.492804,-0.449658,-0.493978,-0.69825,-0.835337,-0.691615,'\'(6.266667-10.533333]\''
-0.662093,-0.673601,-0.722048,-0.74756,-0.696635,-0.712591,-0.640748,-0.618751,-0.625227,-0.914444,-0.381791,-0.729322,-0.764364,-0.886719,-0.392865,-0.759907,-0.477457,-0.37432,-1.328124,-0.724578,-1.111027,-0.390347,-0.513876,'\'(-inf-14.9]\'',1.765617,1.328249,0.431595,1.059869,0.117248,1.083643,-0.551286,0.540317,3.363725,-0.764547,0.749158,0.779691,0.679507,-0.584347,-0.454903,-0.201854,-0.443261,-0.457595,-0.374619,-0.754184,-2.026139,-1.030306,-1.062378,-0.689149,-1.305306,-0.40193,-1.43663,-1.106667,-0.904847,-1.304139,-0.517907,-1.306408,-0.685611,-1.032625,-0.56087,-0.536368,1.83796,-0.408821,-0.63133,-0.660162,-0.597643,-0.53101,-0.522017,-0.61233,-0.77131,-0.683027,-1.083902,-0.687071,2.64056,-1.433667,2.685852,2.510017,2.486373,2.474893,2.57173,2.692685,2.70916,2.80161,3.057409,-1.562322,-1.034758,-1.138371,-1.146668,-0.393131,-0.099145,0.434945,-0.109121,0.136602,-0.335985,-0.362291,-0.284977,-0.259887,0.084713,-0.387161,-0.522051,-0.128107,-0.424427,-0.728694,-0.387541,0.06458,-0.585039,-0.525313,-0.509182,-0.498931,-0.491634,0.662472,-0.368632,-0.596663,-0.484216,-0.435457,-0.487142,-0.688803,-0.831104,-0.691583,'\'(6.266667-10.533333]\''
-0.666164,-0.679218,-0.728069,-0.767086,-0.704095,-0.717233,-0.645475,-0.623438,-0.606408,-0.903963,-0.357804,-0.745034,-0.768675,-0.890574,-0.382716,-0.761118,-0.504742,-0.323477,-1.362118,-0.810254,-1.171001,-0.4019,-0.532715,'\'(14.9-27.8]\'',1.382411,1.460496,0.528721,1.073484,0.243684,1.157056,-0.558924,0.421591,3.200473,-0.804222,0.684438,0.696472,0.643841,-0.584379,-0.458244,-0.215614,-0.441585,-0.454323,-0.371745,-0.81963,-2.026139,-0.967068,-1.384986,-1.133857,-1.224499,-1.002268,-1.363136,-1.212279,-1.111459,-1.643093,-0.507962,-1.306408,-0.688001,-1.027897,-0.569043,-0.532836,2.007315,-0.408657,-0.629546,-0.666342,-0.596661,-0.530919,-0.522017,-0.606664,-0.770276,-0.682187,-1.089804,-0.69229,2.976791,-1.488924,2.602618,2.668984,2.608583,2.649162,2.792443,2.913107,2.943305,3.006732,3.153616,-0.194398,-0.297412,-0.523476,-0.697553,-0.10229,0.004151,0.575921,-0.215194,0.335983,-0.32373,-0.348077,-0.283476,-0.261216,0.055804,-0.448238,-0.509122,-0.124904,-0.39521,-0.723579,-0.363895,0.101267,-0.577889,-0.511165,-0.496246,-0.485304,-0.481805,0.67384,-0.349381,-0.591022,-0.480536,-0.434364,-0.481674,-0.681677,-0.828781,-0.690397,'\'(6.266667-10.533333]\''
-0.666071,-0.684125,-0.7216,-0.772319,-0.695957,-0.723302,-0.644698,-0.621863,-0.599167,-0.895489,-0.352713,-0.747375,-0.779795,-0.896836,-0.393791,-0.763155,-0.471417,-0.322362,-1.400717,-0.877836,-1.226413,-0.393751,-0.534359,'\'(14.9-27.8]\'',1.826051,1.333853,0.586441,1.196016,0.267912,1.047171,-0.569781,0.318629,2.993296,-0.82278,0.622176,0.626214,0.595295,-0.588628,-0.462113,-0.226405,-0.439255,-0.453388,-0.399595,-0.754184,-1.885006,-0.967068,-0.69256,-0.926327,-1.224499,0.363638,-1.344763,-0.866398,-1.175032,-1.222323,-0.269292,-0.851582,-0.675894,-0.985068,-0.574771,-0.529809,2.091993,-0.408555,-0.628621,-0.668697,-0.595679,-0.530555,-0.521186,-0.602361,-0.770099,-0.68255,-1.132672,-0.692523,3.002426,-1.486972,2.169803,2.368713,2.248386,2.384532,2.541495,2.796413,2.822789,2.932142,3.112384,0.775102,0.605461,0.235731,0.021029,0.619799,0.017855,0.613886,-0.256172,0.309399,-0.317602,-0.343813,-0.280474,-0.275833,0.025215,-0.431951,-0.503246,-0.11209,-0.382688,-0.719033,-0.35545,0.113497,-0.573421,-0.50527,-0.489777,-0.47911,-0.473716,0.682071,-0.341884,-0.583633,-0.474401,-0.425625,-0.477573,-0.682576,-0.829236,-0.689631,'\'(6.266667-10.533333]\''
-0.663679,-0.681304,-0.720799,-0.784719,-0.698244,-0.739561,-0.660927,-0.642628,-0.607062,-0.916268,-0.347881,-0.768829,-0.795131,-0.908976,-0.364986,-0.77801,-0.480195,-0.475774,-1.536053,-0.916151,-1.247705,-0.38838,-0.529756,'\'(14.9-27.8]\'',1.779352,1.394373,0.664697,1.350883,0.305767,1.297334,-0.574768,0.236851,2.816867,-0.838138,0.573841,0.537538,0.607184,-0.588376,-0.466686,-0.236208,-0.439483,-0.453388,-0.390754,-0.885076,-2.026139,-1.093544,-1.007299,-0.763267,-1.13359,-0.390915,-1.372323,-1.177955,-0.984313,-1.66647,-0.423433,-1.395589,-0.715784,-1.061808,-0.584528,-0.531459,2.261348,-0.407858,-0.626315,-0.662752,-0.595332,-0.530373,-0.520817,-0.600116,-0.76946,-0.682595,-1.16342,-0.69229,2.998128,-1.476783,1.484513,1.547384,1.389703,1.739091,1.994246,2.449573,2.516336,2.596488,2.947458,1.651636,1.658812,1.227092,0.850569,1.617685,0.030597,0.653646,-0.276563,0.191669,-0.311474,-0.338127,-0.281975,-0.287792,0.018156,-0.430593,-0.500895,-0.11209,-0.381297,-0.713918,-0.35545,0.113497,-0.568058,-0.501734,-0.488484,-0.476632,-0.469473,0.669522,-0.34468,-0.576788,-0.470721,-0.422348,-0.473471,-0.68259,-0.829255,-0.688475,'\'(6.266667-10.533333]\''
-0.664181,-0.683978,-0.710807,-0.782131,-0.691903,-0.744161,-0.661616,-0.645349,-0.607857,-0.935994,-0.331394,-0.772347,-0.80255,-0.91757,-0.350552,-0.780814,-0.48137,-0.401986,-1.576145,-0.984797,-1.301177,-0.381917,-0.533998,'\'(14.9-27.8]\'',1.87687,1.551276,0.771813,1.420658,0.420847,1.443458,-0.580449,0.176749,2.662399,-0.847736,0.538613,0.487743,0.594304,-0.590202,-0.473896,-0.252036,-0.443459,-0.451051,-0.392301,-0.81963,-2.167272,-1.093544,-0.750262,-0.303736,-1.34571,-0.087992,-1.069161,-0.871679,-0.92074,-1.350892,-0.179791,-1.074536,-0.691394,-1.018214,-0.588041,-0.531991,2.176671,-0.406732,-0.624094,-0.654805,-0.595679,-0.530555,-0.521463,-0.593711,-0.76897,-0.681529,-1.155861,-0.682398,2.440157,-1.368167,1.537228,1.609205,1.145284,1.574504,1.818885,2.206461,2.268418,2.309317,2.710377,0.629013,0.951562,0.656118,0.343335,1.176409,0.054557,0.695641,-0.302052,0.142298,-0.309942,-0.335285,-0.280474,-0.295764,0.074628,-0.415664,-0.500895,-0.11209,-0.384079,-0.709372,-0.357139,0.110439,-0.568058,-0.501734,-0.484603,-0.477871,-0.465658,0.672592,-0.345156,-0.571948,-0.469494,-0.426717,-0.470737,-0.682995,-0.829083,-0.686468,'\'(6.266667-10.533333]\''
-0.664933,-0.686529,-0.705874,-0.795949,-0.686425,-0.761052,-0.675933,-0.659347,-0.607028,-0.955241,-0.312527,-0.791105,-0.820479,-0.940325,-0.339342,-0.800997,-0.4413,-0.369731,-1.747555,-0.984265,-1.317533,-0.381199,-0.543499,'\'(14.9-27.8]\'',1.749135,1.525499,0.936094,1.536383,0.593466,1.404414,-0.589161,0.045214,2.494754,-0.861815,0.448087,0.34859,0.577461,-0.590485,-0.480052,-0.264446,-0.446868,-0.450584,-0.385007,-1.015968,-2.167272,-1.156782,-0.6742,-0.911503,-1.103287,-0.005377,-0.784373,-0.589165,-0.698234,-1.350892,0.103629,-0.753482,-0.702333,-0.95566,-0.58741,-0.533464,2.346026,-0.405175,-0.622193,-0.652568,-0.594754,-0.53001,-0.520448,-0.592037,-0.768564,-0.681246,-1.179538,-0.674375,2.063324,-1.276288,1.370761,1.26772,1.077747,1.225966,1.356293,1.736444,1.776027,2.003498,2.40114,-0.606103,0.312027,0.13534,0.227093,1.025974,0.080121,0.778135,-0.333031,0.119987,-0.305346,-0.331021,-0.281975,-0.302408,0.076309,-0.423807,-0.496194,-0.105684,-0.381297,-0.704825,-0.350383,0.122669,-0.565377,-0.497018,-0.478134,-0.472916,-0.457905,0.691044,-0.342043,-0.564072,-0.46704,-0.411424,-0.472104,-0.684409,-0.830342,-0.684074,'\'(6.266667-10.533333]\''
-0.660256,-0.685425,-0.69681,-0.792331,-0.679028,-0.766593,-0.68088,-0.664332,-0.611791,-0.955998,-0.320503,-0.794045,-0.826163,-0.94864,-0.35043,-0.809579,-0.411019,-0.429224,-1.827402,-0.981072,-1.336537,-0.371645,-0.546886,'\'(14.9-27.8]\'',1.887858,1.578174,1.102596,1.890365,0.66312,1.132507,-0.59298,-0.025234,2.352732,-0.857335,0.394426,0.276968,0.551702,-0.589793,-0.486383,-0.274788,-0.451328,-0.447312,-0.380365,-0.885076,-2.026139,-1.093544,-0.152258,-0.259265,-0.891168,0.815268,-0.922174,-0.37794,-0.602875,-1.315827,0.332354,-0.530528,-0.728926,-1.037444,-0.591471,-0.539355,2.176671,-0.403742,-0.619837,-0.643032,-0.59331,-0.529464,-0.519987,-0.592552,-0.768239,-0.679765,-1.190362,-0.670169,1.890231,-1.213782,1.229264,1.117584,1.193525,1.242102,1.307917,1.600302,1.652068,1.8394,2.253394,-0.141275,0.379742,0.229456,0.264079,1.06609,0.095668,0.703586,-0.458711,0.101473,-0.299219,-0.325335,-0.278974,-0.295764,0.024879,-0.417021,-0.497369,-0.105684,-0.381297,-0.699142,-0.348694,0.128783,-0.567164,-0.497018,-0.475547,-0.474154,-0.453723,0.683589,-0.341376,-0.558688,-0.465814,-0.416886,-0.46937,-0.67891,-0.827506,-0.682831,'\'(10.533333-inf)\''
-0.653966,-0.677575,-0.691974,-0.795993,-0.678944,-0.779047,-0.691316,-0.674808,-0.647046,-0.955957,-0.383524,-0.785372,-0.839472,-0.943356,-0.393267,-0.814265,-0.478345,-0.441925,-1.875193,-0.929454,-1.31852,-0.370614,-0.549516,'\'(14.9-27.8]\'',1.839785,1.473945,1.200832,1.806975,0.834225,0.802852,-0.593453,-0.04888,2.22828,-0.856695,0.381319,0.262643,0.540804,-0.588754,-0.48779,-0.283961,-0.449027,-0.444975,-0.379481,-0.885076,-2.026139,-1.093544,-0.333233,-0.615031,-1.194196,0.413207,-0.389344,-0.055822,-0.904847,-1.093754,0.750027,-0.191638,-0.666773,-1.021772,-0.583145,-0.542819,2.091993,-0.403066,-0.616101,-0.626139,-0.591461,-0.528827,-0.519433,-0.59247,-0.768007,-0.677576,-1.1865,-0.669156,1.853754,-1.178691,1.159902,1.064595,1.151716,1.184012,1.23233,1.548438,1.648625,1.895343,2.198419,-0.141275,0.447458,0.380043,0.475427,1.11122,-0.018928,0.484245,-0.490279,0.159863,-0.293091,-0.321071,-0.278974,-0.301079,-0.056804,-0.436023,-0.500895,-0.108887,-0.388253,-0.695164,-0.348694,0.14407,-0.574314,-0.501734,-0.474253,-0.480348,-0.451617,0.687671,-0.345474,-0.554907,-0.459679,-0.399408,-0.465269,-0.674722,-0.824753,-0.678545,'\'(10.533333-inf)\''
-0.655311,-0.676029,-0.690821,-0.770636,-0.682172,-0.746904,-0.662514,-0.64931,-0.587928,-0.896896,-0.331843,-0.784909,-0.806581,-0.921686,-0.284866,-0.777581,-0.511442,-0.537003,-1.60413,-0.914022,-1.284468,-0.382729,-0.545275,'\'(14.9-27.8]\'',1.448339,1.347302,1.204162,1.641897,0.912207,0.696474,-0.586541,-0.014888,2.088454,-0.809981,0.387463,0.270146,0.544767,-0.584032,-0.481635,-0.288908,-0.432182,-0.438899,-0.370198,-0.557846,-2.026139,-0.903829,0.409026,-0.437148,-0.709351,1.679975,-0.453651,0.142202,-0.364476,-0.883369,0.849472,-0.164884,-0.626134,-0.975115,-0.574373,-0.549038,1.753282,-0.402574,-0.607099,-0.596354,-0.592501,-0.528827,-0.519341,-0.591054,-0.766626,-0.676099,-1.178335,-0.665339,1.714985,-1.117667,1.084992,0.964505,1.125988,1.109787,1.14465,1.486849,1.621078,1.880425,2.129699,-0.167836,0.507649,0.499257,0.596952,1.146322,-0.0848,0.393026,-0.56949,0.113341,-0.305346,-0.333863,-0.283476,-0.301079,-0.074619,-0.404805,-0.498545,-0.096074,-0.389645,-0.691186,-0.348694,0.156299,-0.568952,-0.497018,-0.471666,-0.476632,-0.445115,0.707809,-0.34487,-0.547862,-0.454772,-0.401592,-0.461167,-0.672614,-0.823731,-0.674702,'\'(6.266667-10.533333]\''
-0.654419,-0.675956,-0.69111,-0.776341,-0.680842,-0.757688,-0.679685,-0.669817,-0.623281,-0.901646,-0.390604,-0.787845,-0.811698,-0.9142,-0.250094,-0.778681,-0.542948,-0.57676,-1.620984,-0.914554,-1.285321,-0.384633,-0.547642,'\'(14.9-27.8]\'',1.534869,1.196002,1.189177,1.512557,0.949305,0.639194,-0.588845,-0.054792,1.901775,-0.846457,0.387872,0.273557,0.540804,-0.58378,-0.482162,-0.290077,-0.429597,-0.432356,-0.374398,-0.81963,-2.026139,-0.903829,0.705405,1.089683,-0.204304,1.217329,-0.049436,0.261016,0.207681,-1.082066,0.983724,-0.173802,-0.68344,-1.110041,-0.577323,-0.550102,1.83796,-0.40112,-0.600806,-0.575046,-0.593599,-0.530737,-0.521279,-0.590845,-0.766019,-0.675635,-1.183489,-0.663392,1.651663,-1.074655,1.037826,1.01455,1.206389,1.206603,1.235354,1.561404,1.710604,1.962474,2.133135,0.456362,0.808607,0.769058,0.803016,1.236583,-0.044652,0.426602,-0.653212,0.108593,-0.303815,-0.333863,-0.280474,-0.285134,-0.149916,-0.370874,-0.497369,-0.080057,-0.399384,-0.686071,-0.352072,0.162414,-0.565377,-0.497018,-0.471666,-0.476632,-0.442734,0.719954,-0.350017,-0.543853,-0.448638,-0.391761,-0.451598,-0.670857,-0.823766,-0.670797,'\'(6.266667-10.533333]\''
-0.648523,-0.670632,-0.679099,-0.753726,-0.667988,-0.743099,-0.66494,-0.659413,-0.611647,-0.88071,-0.388875,-0.779371,-0.798087,-0.902369,-0.230101,-0.763588,-0.476233,-0.591522,-1.512477,-0.874643,-1.258616,-0.386101,-0.544683,'\'(14.9-27.8]\'',1.239568,1.165742,1.173082,1.412149,0.972018,0.599448,-0.583385,-0.068093,1.834424,-0.860535,0.389921,0.271511,0.54873,-0.577485,-0.474248,-0.292954,-0.41866,-0.427214,-0.374177,-0.623292,-1.602741,-0.714115,0.461483,0.556033,-0.709351,1.140222,0.014871,0.271577,-0.443942,-0.930121,1.237311,-0.343247,-0.650469,-1.038075,-0.575721,-0.555107,1.49924,-0.399829,-0.59771,-0.565274,-0.593426,-0.532374,-0.523124,-0.59029,-0.765358,-0.673388,-1.175573,-0.65942,1.520927,-1.007303,1.109962,1.067539,1.283574,1.251784,1.271636,1.503057,1.638295,1.858048,2.016313,0.270431,0.477554,0.474159,0.517696,0.935713,-0.005946,0.447729,-0.737325,0.101947,-0.305346,-0.335285,-0.284977,-0.27849,-0.154285,-0.370874,-0.496194,-0.080057,-0.404949,-0.684934,-0.350383,0.1777,-0.563589,-0.497018,-0.469079,-0.475393,-0.440933,0.728522,-0.348015,-0.542621,-0.449865,-0.392853,-0.451598,-0.660799,-0.819022,-0.665114,'\'(6.266667-10.533333]\''
-0.647549,-0.668424,-0.672021,-0.753852,-0.666621,-0.720682,-0.639403,-0.634651,-0.554964,-0.848227,-0.317438,-0.777579,-0.779439,-0.890159,-0.179608,-0.743328,-0.318673,-0.462336,-1.363398,-0.841118,-1.234182,-0.378576,-0.532156,'\'(14.9-27.8]\'',1.290387,1.123154,1.03877,1.061571,0.944763,0.673094,-0.574737,-0.028682,1.732666,-0.856695,0.423919,0.316531,0.565573,-0.571378,-0.464224,-0.280544,-0.409939,-0.416932,-0.377492,-0.557846,-1.461608,-0.650877,0.110024,-0.185147,-0.749755,0.853822,-0.242357,0.511846,-0.221437,-0.941809,1.32184,0.20076,-0.621574,-0.977952,-0.57078,-0.554398,1.49924,-0.399297,-0.595455,-0.565863,-0.591866,-0.531738,-0.522755,-0.591995,-0.764266,-0.67156,-1.171627,-0.654902,1.379653,-0.942008,1.118285,1.070483,1.23855,1.229193,1.253495,1.483608,1.600419,1.775999,1.906362,0.150903,0.409838,0.386317,0.385604,0.760205,-0.012036,0.442702,-0.646938,0.13138,-0.303815,-0.335285,-0.287978,-0.269189,-0.094116,-0.365445,-0.487967,-0.07365,-0.386862,-0.682661,-0.33856,0.174643,-0.558227,-0.487586,-0.461317,-0.466721,-0.434523,0.733616,-0.334927,-0.538955,-0.448638,-0.393946,-0.448864,-0.65508,-0.817283,-0.659297,'\'(6.266667-10.533333]\''
-0.641266,-0.662218,-0.665135,-0.732548,-0.658299,-0.709627,-0.628259,-0.624247,-0.545629,-0.819229,-0.326851,-0.767791,-0.769096,-0.874048,-0.132351,-0.724043,-0.407975,-0.370572,-1.221217,-0.719789,-1.167699,-0.379575,-0.52946,'\'(14.9-27.8]\'',1.279399,0.974096,1.132011,1.279406,0.975047,0.542168,-0.565899,0.020582,1.69899,-0.849016,0.461195,0.366325,0.583406,-0.565712,-0.454551,-0.268853,-0.400764,-0.410856,-0.374177,-0.361507,-1.320475,-0.461163,0.907363,-0.022087,-0.507332,1.889267,0.501767,0.783798,-0.253223,-0.731424,1.595315,0.486141,-0.6237,-0.992454,-0.569404,-0.551957,1.329885,-0.397904,-0.593015,-0.562096,-0.591057,-0.532102,-0.523032,-0.593152,-0.763101,-0.670597,-1.199441,-0.649917,1.2348,-0.870422,1.07112,1.011606,1.232117,1.203376,1.229307,1.486849,1.593532,1.757351,1.837643,0.270431,0.545269,0.480434,0.449008,0.745162,-0.013238,0.413079,-0.576157,0.115714,-0.299219,-0.331021,-0.283476,-0.273175,-0.114621,-0.349158,-0.483266,-0.05443,-0.375732,-0.679819,-0.328426,0.180757,-0.556439,-0.48287,-0.456142,-0.461766,-0.430525,0.731727,-0.324095,-0.537208,-0.447411,-0.4005,-0.444762,-0.65013,-0.815077,-0.653815,'\'(6.266667-10.533333]\''
-0.639584,-0.65844,-0.653893,-0.69678,-0.646649,-0.698657,-0.618197,-0.616857,-0.535189,-0.791999,-0.332613,-0.762075,-0.758049,-0.865124,-0.123075,-0.710743,-0.511741,-0.338783,-1.12464,-0.715,-1.171482,-0.34576,-0.496878,'\'(14.9-27.8]\'',1.492291,0.914697,1.094271,0.933933,1.077256,0.431114,-0.554,0.079699,1.67776,-0.81958,0.491916,0.400431,0.608174,-0.557622,-0.441185,-0.252126,-0.386845,-0.405715,-0.370861,-0.296061,-1.179342,-0.397925,0.794581,-0.111029,-0.658846,1.630406,0.731435,1.047829,0.191788,-0.649607,1.744484,0.798277,-0.559409,-0.927648,-0.561024,-0.550007,0.906488,-0.397085,-0.591265,-0.558387,-0.589959,-0.532011,-0.523493,-0.590247,-0.761679,-0.667384,-1.168042,-0.648126,1.188844,-0.832549,1.168226,1.208843,1.42508,1.419598,1.459091,1.681339,1.755367,1.861777,1.93385,0.814944,0.733368,0.555727,0.412023,0.71006,0.030917,0.46533,-0.623605,0.13043,-0.296155,-0.326756,-0.277473,-0.27849,-0.081006,-0.361373,-0.480915,-0.041616,-0.370166,-0.676978,-0.323359,0.196044,-0.553758,-0.479333,-0.452261,-0.45805,-0.425244,0.740295,-0.320982,-0.531967,-0.444958,-0.399408,-0.442028,-0.640944,-0.810358,-0.648094,'\'(6.266667-10.533333]\''
-0.636095,-0.650467,-0.645886,-0.69754,-0.643621,-0.671621,-0.590165,-0.590514,-0.497831,-0.755218,-0.299076,-0.745227,-0.73338,-0.851125,-0.093964,-0.686713,-0.421573,-0.295624,-0.946367,-0.624535,-1.075359,-0.349601,-0.477973,'\'(14.9-27.8]\'',1.180508,0.79702,1.016015,1.189209,0.856939,0.26161,-0.540871,0.155565,1.719489,-0.788224,0.532469,0.458412,0.622045,-0.549375,-0.42606,-0.242053,-0.366903,-0.393095,-0.37285,-0.230615,-1.038209,-0.271449,0.930968,0.052031,-0.406323,1.713021,0.740622,1.116477,0.255361,-0.801552,2.01796,0.619914,-0.568365,-0.994165,-0.555261,-0.547115,0.906488,-0.396306,-0.589364,-0.556621,-0.588804,-0.531556,-0.522847,-0.585356,-0.759771,-0.664264,-1.158505,-0.647658,1.186204,-0.814689,1.276429,1.282439,1.518345,1.539005,1.622359,1.869346,1.937862,2.014687,1.940721,1.014156,0.876322,0.643569,0.42259,0.524523,0.035805,0.470129,-0.664192,0.13043,-0.296155,-0.326756,-0.272971,-0.291778,-0.058821,-0.349158,-0.476214,-0.022396,-0.361819,-0.674705,-0.316603,0.217445,-0.550183,-0.473438,-0.44838,-0.453094,-0.417216,0.752135,-0.315169,-0.524292,-0.44005,-0.399408,-0.435193,-0.635314,-0.807753,-0.647453,'\'(6.266667-10.533333]\''
-0.637887,-0.652062,-0.642748,-0.699872,-0.651359,-0.649782,-0.571411,-0.572151,-0.472307,-0.725333,-0.280284,-0.736836,-0.710389,-0.841468,-0.061804,-0.67178,-0.306154,-0.330457,-0.838696,-0.597395,-1.067304,-0.33477,-0.464821,'\'(14.9-27.8]\'',1.418122,1.036858,0.872269,0.857351,0.808484,0.391368,-0.550592,0.2068,1.704847,-0.759428,0.556636,0.489107,0.635915,-0.562344,-0.420432,-0.231531,-0.357614,-0.382813,-0.371745,-0.165169,-0.897076,-0.271449,1.258821,0.363327,-0.365919,2.203205,0.841675,0.899972,0.255361,-0.579479,1.60526,0.459387,-0.56397,-0.94985,-0.550473,-0.541251,0.991166,-0.395753,-0.587816,-0.554856,-0.588746,-0.531738,-0.523216,-0.580666,-0.758056,-0.661043,-1.11433,-0.651241,1.30062,-0.84687,1.329144,1.36781,1.601962,1.619685,1.722133,2.005489,2.099697,2.148948,2.02662,1.200088,1.049373,0.819253,0.512413,0.55461,0.071707,0.509204,-0.712621,0.137551,-0.291559,-0.322492,-0.266967,-0.255901,-0.050417,-0.342371,-0.472688,-0.019193,-0.350688,-0.671295,-0.311536,0.232732,-0.548395,-0.468722,-0.443205,-0.449378,-0.411111,0.757533,-0.31285,-0.517533,-0.438823,-0.397223,-0.435193,-0.631662,-0.805037,-0.64672,'\'(6.266667-10.533333]\''
-0.629512,-0.640237,-0.639545,-0.678067,-0.641586,-0.622775,-0.538219,-0.540003,-0.435985,-0.697207,-0.240773,-0.713729,-0.689827,-0.82149,-0.018718,-0.640058,-0.271616,-0.286672,-0.604578,-0.565467,-1.022204,-0.332678,-0.451407,'\'(14.9-27.8]\'',1.604918,0.744345,0.752388,0.641218,0.741102,0.265117,-0.515305,0.292519,1.69899,-0.735111,0.612755,0.562094,0.665637,-0.532628,-0.394227,-0.20716,-0.338468,-0.371128,-0.365998,-0.099723,-0.61481,-0.081735,0.734256,-0.392677,-0.48713,1.713021,0.400713,0.562012,0.048749,-0.789864,1.12792,0.450469,-0.519399,-0.868111,-0.542026,-0.534909,0.82181,-0.395282,-0.586267,-0.55309,-0.589035,-0.532465,-0.52377,-0.579501,-0.75609,-0.658434,-1.126258,-0.647502,1.202825,-0.800425,1.298625,1.279495,1.492617,1.503505,1.610265,1.940659,2.030831,2.096735,1.995697,0.854787,0.981657,0.762784,0.496562,0.564639,0.070986,0.488256,-0.720463,0.131855,-0.286963,-0.319649,-0.256462,-0.241285,-0.077309,-0.341014,-0.469162,-0.025599,-0.346515,-0.669022,-0.308158,0.260247,-0.54482,-0.465185,-0.440618,-0.445661,-0.406075,0.7688,-0.313644,-0.511519,-0.432689,-0.391761,-0.428357,-0.632685,-0.804061,-0.643694,'\'(6.266667-10.533333]\''
-0.617665,-0.624439,-0.630001,-0.662215,-0.633495,-0.608101,-0.533048,-0.538316,-0.452973,-0.675118,-0.290032,-0.703685,-0.668528,-0.806446,0.023115,-0.621632,-0.426508,-0.373094,-0.47415,-0.406887,-0.898772,-0.344293,-0.45065,'\'(14.9-27.8]\'',1.224459,0.701757,0.638057,0.569741,0.616937,0.23449,-0.506689,0.373805,1.783179,-0.709515,0.658632,0.623485,0.687433,-0.529229,-0.382972,-0.190972,-0.326366,-0.366454,-0.378376,-0.099723,-0.61481,-0.081735,0.747371,-0.185147,-0.709351,1.801144,0.373153,0.907893,0.001069,-0.637919,1.650011,0.593159,-0.468339,-0.807223,-0.524622,-0.532073,0.737132,-0.394381,-0.583575,-0.548616,-0.588168,-0.532283,-0.523032,-0.575519,-0.754185,-0.654382,-1.117325,-0.647113,1.20757,-0.794067,1.306948,1.205899,1.376839,1.400235,1.504443,1.892036,1.992955,2.051981,1.964773,0.350116,0.846227,0.674941,0.417306,0.504465,0.030837,0.394556,-0.723797,0.129006,-0.286963,-0.318228,-0.254961,-0.242614,-0.100839,-0.351872,-0.464461,-0.032006,-0.340949,-0.66618,-0.303091,0.278591,-0.540352,-0.461648,-0.435443,-0.441945,-0.403633,0.775378,-0.313422,-0.508827,-0.429009,-0.389576,-0.422889,-0.632403,-0.801864,-0.640235,'\'(6.266667-10.533333]\''
-0.607756,-0.615755,-0.627278,-0.647206,-0.626597,-0.599559,-0.525588,-0.530891,-0.447921,-0.673889,-0.282069,-0.694016,-0.659627,-0.799714,0.012866,-0.612507,-0.458982,-0.308358,-0.417167,-0.402098,-0.854508,-0.334864,-0.427964,'\'(14.9-27.8]\'',1.026676,0.598649,0.575341,0.564635,0.533655,0.189133,-0.495484,0.448686,1.788303,-0.684558,0.70451,0.685558,0.708239,-0.522838,-0.371364,-0.170288,-0.312163,-0.357574,-0.375945,-0.099723,-0.61481,-0.081735,0.930968,-0.170323,-0.537635,1.850713,0.768182,0.781158,-0.205543,-0.7548,1.570454,0.512896,-0.468735,-0.914227,-0.512861,-0.526004,0.737132,-0.394012,-0.581371,-0.544613,-0.586608,-0.532283,-0.523124,-0.570735,-0.752304,-0.650196,-1.095555,-0.64906,1.279186,-0.819074,1.268106,1.238282,1.415432,1.432507,1.543748,1.934176,2.044604,2.111653,2.016313,0.708698,1.049373,0.8569,0.575817,0.649886,0.077236,0.415796,-0.763599,0.151318,-0.290027,-0.323914,-0.25346,-0.254572,-0.119999,-0.349158,-0.460935,-0.022396,-0.335384,-0.663338,-0.301402,0.30305,-0.534989,-0.456932,-0.431562,-0.438229,-0.401588,0.791738,-0.315518,-0.50645,-0.425328,-0.390668,-0.41742,-0.632163,-0.799555,-0.638047,'\'(6.266667-10.533333]\''
-0.596679,-0.603047,-0.614051,-0.619841,-0.623222,-0.590088,-0.513484,-0.51654,-0.444305,-0.634732,-0.309665,-0.684986,-0.652771,-0.791041,-0.026758,-0.607743,-0.396064,-0.523527,-0.395992,-0.32813,-0.792041,-0.331772,-0.419186,'\'(14.9-27.8]\'',1.175014,0.460798,0.48876,0.479543,0.453402,0.078313,-0.48428,0.500413,1.810266,-0.664721,0.734002,0.727167,0.719137,-0.514969,-0.357119,-0.149694,-0.297988,-0.348226,-0.373513,-0.165169,-0.473677,-0.144973,0.676554,-0.274088,-0.719452,1.724036,0.318033,0.672905,0.128215,-0.895057,1.137865,0.842867,-0.46261,-0.914272,-0.507897,-0.52048,0.567777,-0.393521,-0.579486,-0.541729,-0.584817,-0.531556,-0.522294,-0.565388,-0.750618,-0.645722,-1.069364,-0.649683,1.313453,-0.831846,1.304174,1.364866,1.492617,1.50996,1.595147,1.976315,2.09281,2.171325,2.064416,0.761821,1.049373,0.863175,0.591668,0.6549,0.099835,0.410174,-0.847516,0.199739,-0.285431,-0.318228,-0.25196,-0.238627,-0.140167,-0.349158,-0.457409,-0.015989,-0.335384,-0.659929,-0.299713,0.318336,-0.532308,-0.454574,-0.428975,-0.435751,-0.400794,0.794673,-0.315105,-0.505762,-0.421648,-0.386299,-0.413319,-0.635664,-0.79822,-0.636581,'\'(6.266667-10.533333]\''
-0.592458,-0.597601,-0.606332,-0.610115,-0.610968,-0.551897,-0.473048,-0.474427,-0.386016,-0.596113,-0.240395,-0.665401,-0.618583,-0.770603,0.027076,-0.575556,-0.249069,-0.455466,-0.169253,-0.27864,-0.721715,-0.335457,-0.412446,'\'(14.9-27.8]\'',0.974483,0.473126,0.419385,0.302552,0.437503,-0.004919,-0.470298,0.56889,1.830764,-0.628245,0.766363,0.769459,0.735979,-0.505399,-0.330563,-0.124513,-0.275916,-0.340748,-0.373071,-0.034277,-0.473677,-0.081735,1.224725,0.140972,0.028017,1.432129,1.787907,1.171924,0.064642,-0.123644,1.471008,1.377957,-0.439014,-0.778536,-0.497186,-0.516893,0.483099,-0.392763,-0.577013,-0.541729,-0.585337,-0.530464,-0.521094,-0.563329,-0.748718,-0.641263,-1.034734,-0.648126,1.283783,-0.831227,1.329144,1.26772,1.460456,1.458325,1.531654,1.92121,2.037717,2.033334,2.030056,0.363396,0.853751,0.706314,0.348618,0.559625,0.131649,0.403614,-0.898886,0.20686,-0.274708,-0.306857,-0.248958,-0.224011,-0.125041,-0.358658,-0.449182,-0.003176,-0.328428,-0.656519,-0.28789,0.318336,-0.527839,-0.448679,-0.419919,-0.428318,-0.394506,0.788432,-0.301319,-0.501753,-0.414287,-0.37756,-0.407851,-0.637958,-0.798709,-0.636295,'\'(6.266667-10.533333]\''
-0.585336,-0.587445,-0.622506,-0.61093,-0.611619,-0.543022,-0.464422,-0.469631,-0.39233,-0.590103,-0.256538,-0.657617,-0.61002,-0.753412,0.052131,-0.55565,-0.360003,-0.166636,-0.039322,-0.18924,-0.636613,-0.32278,-0.391962,'\'(14.9-27.8]\'',0.999206,0.420452,0.273418,0.205548,0.28154,-0.059861,-0.455022,0.669389,1.833692,-0.561054,0.806505,0.822664,0.755794,-0.496586,-0.314734,-0.099602,-0.263417,-0.3314,-0.369756,0.292953,-0.473677,0.234455,2.17681,1.386155,0.341146,2.996311,1.457185,1.623418,0.922878,0.414007,1.77929,1.45822,-0.424715,-0.7843,-0.484954,-0.506187,0.652455,-0.392271,-0.573647,-0.536255,-0.587937,-0.533921,-0.524416,-0.553466,-0.746511,-0.633585,-0.971656,-0.655214,1.517776,-0.931802,1.337467,1.303046,1.521561,1.513187,1.573983,1.976315,2.096253,1.98858,2.009441,0.509485,0.959086,0.794156,0.269363,0.514494,0.105204,0.401596,-0.832027,0.204961,-0.26858,-0.301171,-0.242955,-0.234641,-0.109746,-0.345086,-0.443306,-0.012786,-0.325645,-0.650836,-0.279445,0.315279,-0.52337,-0.442784,-0.412157,-0.422124,-0.384739,0.78651,-0.292106,-0.492102,-0.41306,-0.385206,-0.406484,-0.640161,-0.798791,-0.635992,'\'(6.266667-10.533333]\''
-0.577698,-0.578393,-0.612418,-0.609635,-0.615499,-0.533614,-0.453627,-0.458465,-0.381151,-0.586094,-0.240178,-0.648425,-0.602245,-0.749,0.071591,-0.547394,-0.31351,-0.266342,-0.001025,-0.187111,-0.628704,-0.31972,-0.387261,'\'(14.9-27.8]\'',1.010194,0.438384,0.212368,0.110245,0.240656,-0.029234,-0.446437,0.700425,1.851994,-0.571933,0.838456,0.864956,0.771646,-0.490007,-0.302599,-0.084943,-0.252991,-0.322052,-0.368651,-0.034277,-0.332544,-0.018497,0.610984,-0.125852,-0.497231,1.079637,0.869236,0.931655,0.271254,-0.719736,1.177643,1.431466,-0.374084,-0.770654,-0.462384,-0.496886,0.652455,-0.391473,-0.570787,-0.530133,-0.586608,-0.534012,-0.524877,-0.544358,-0.744012,-0.631473,-0.989987,-0.655136,1.531969,-0.948878,1.42625,1.453181,1.659851,1.668093,1.740274,2.131907,2.261532,2.171325,2.146879,0.814944,1.079469,0.894547,0.359186,0.55461,0.060327,0.319097,-0.804577,0.307975,-0.262452,-0.294064,-0.235451,-0.209394,-0.08904,-0.313869,-0.43978,-0.009582,-0.315906,-0.649699,-0.276067,0.333623,-0.519795,-0.439247,-0.40957,-0.418407,-0.379946,0.790726,-0.290963,-0.486574,-0.410606,-0.379744,-0.401015,-0.639379,-0.797312,-0.63361,'\'(6.266667-10.533333]\''
-0.569506,-0.568506,-0.604058,-0.601241,-0.605332,-0.521752,-0.442117,-0.445159,-0.373762,-0.589488,-0.224116,-0.640333,-0.590798,-0.744294,0.085234,-0.538201,-0.279517,-0.336464,0.041272,-0.097179,-0.574888,-0.307699,-0.375128,'\'(14.9-27.8]\'',1.047278,0.391313,0.199603,0.098332,0.228542,0.080417,-0.43498,0.747719,1.848333,-0.552736,0.865491,0.899744,0.786507,-0.481602,-0.289233,-0.067856,-0.240492,-0.316911,-0.358704,0.096615,-0.332544,0.044741,1.104075,0.304032,-0.396222,1.707513,1.190771,1.066311,0.366614,-0.298965,1.381507,1.146085,-0.461498,-0.807043,-0.458071,-0.486085,0.737132,-0.390735,-0.56801,-0.525542,-0.584817,-0.533193,-0.524324,-0.535836,-0.741654,-0.627488,-0.981535,-0.65498,1.551019,-0.972436,1.531679,1.556216,1.714524,1.726182,1.834002,2.245359,2.368274,2.260833,2.25683,0.721978,1.056897,0.850626,0.285214,0.524523,0.094225,0.318439,-0.872613,0.354972,-0.26092,-0.295486,-0.23245,-0.216038,-0.093847,-0.304368,-0.435078,-0.012786,-0.310341,-0.646289,-0.271,0.361139,-0.515326,-0.433352,-0.405689,-0.413452,-0.37436,0.814238,-0.29109,-0.480732,-0.406926,-0.376467,-0.398281,-0.638575,-0.795389,-0.63311,'\'(6.266667-10.533333]\''
-0.566698,-0.564532,-0.59714,-0.589205,-0.601688,-0.511127,-0.434572,-0.443454,-0.384062,-0.604333,-0.229311,-0.635516,-0.578357,-0.738053,0.080801,-0.532515,-0.252478,-0.312574,0.054019,-0.066314,-0.506426,-0.290495,-0.346952,'\'(14.9-27.8]\'',0.779447,0.310619,0.214033,0.266814,0.173274,0.038334,-0.425322,0.7891,1.89299,-0.531618,0.883514,0.928393,0.788489,-0.474614,-0.280264,-0.056435,-0.233959,-0.30803,-0.352515,0.031169,-0.473677,-0.018497,0.902117,0.185443,-0.305313,1.377052,1.02541,0.9739,0.636799,-0.532727,1.267144,1.065821,-0.432701,-0.694455,-0.449253,-0.47647,0.82181,-0.390387,-0.565924,-0.520892,-0.584471,-0.533739,-0.526538,-0.525347,-0.739632,-0.620534,-0.881407,-0.655759,1.600996,-1.005031,1.540002,1.694576,1.759548,1.877861,2.063786,2.504679,2.636851,2.436119,2.404576,1.691478,1.63624,1.321209,0.517696,0.725104,0.15569,0.370709,-0.934571,0.42523,-0.262452,-0.295486,-0.229448,-0.22534,-0.097141,-0.33287,-0.432728,-0.006379,-0.304776,-0.644016,-0.269311,0.385597,-0.511751,-0.429815,-0.403102,-0.410974,-0.372498,0.815554,-0.295156,-0.477123,-0.403245,-0.37319,-0.396914,-0.634484,-0.791532,-0.633919,'\'(6.266667-10.533333]\''
-0.556967,-0.552487,-0.588813,-0.575547,-0.593655,-0.503832,-0.423539,-0.434037,-0.384465,-0.598378,-0.234964,-0.625588,-0.574438,-0.733083,0.064547,-0.523683,-0.323987,-0.31841,0.087427,-0.021082,-0.436955,-0.28525,-0.333866,'\'(14.9-27.8]\'',0.908555,0.182855,0.063071,-0.000374,0.086207,0.043711,-0.413296,0.842305,1.931058,-0.498983,0.904405,0.963863,0.787498,-0.46602,-0.263204,-0.042586,-0.217397,-0.299617,-0.34721,0.031169,-0.473677,-0.081735,1.083092,0.74874,0.068421,1.531267,0.713061,1.166643,0.366614,-0.415846,1.490897,1.377957,-0.466631,-0.761827,-0.450096,-0.473006,0.737132,-0.38967,-0.564073,-0.517065,-0.582795,-0.532829,-0.525892,-0.519592,-0.737372,-0.614797,-0.839318,-0.658485,1.718939,-1.05947,1.745312,1.791722,1.772412,1.942405,2.190772,2.605165,2.688501,2.536816,2.511091,1.266492,1.312711,0.951017,0.269363,0.50948,0.167871,0.401293,-0.958883,0.470803,-0.262452,-0.296907,-0.226447,-0.241285,-0.11573,-0.339657,-0.430377,-0.009582,-0.301993,-0.641174,-0.267622,0.394769,-0.50907,-0.427457,-0.400514,-0.408497,-0.369873,0.819636,-0.294934,-0.47403,-0.398338,-0.372098,-0.391446,-0.629273,-0.786831,-0.63417,'\'(6.266667-10.533333]\''
-0.554035,-0.548292,-0.593777,-0.58382,-0.602608,-0.498236,-0.417661,-0.427381,-0.385421,-0.580191,-0.252004,-0.612119,-0.569394,-0.724347,0.05255,-0.516055,-0.384131,-0.407119,0.109277,0.012975,-0.468966,-0.28041,-0.338995,'\'(14.9-27.8]\'',1.088483,0.405882,0.077502,0.020048,0.096806,0.039503,-0.403512,0.878761,1.943503,-0.481705,0.923248,0.994559,0.788489,-0.458591,-0.249135,-0.020912,-0.201575,-0.292139,-0.337264,0.031169,-0.473677,-0.081735,0.791959,0.37815,-0.386121,1.327483,0.676314,0.614818,0.255361,-0.485975,0.90914,0.673422,-0.422853,-0.729762,-0.443351,-0.465983,0.906488,-0.389527,-0.562659,-0.517183,-0.581755,-0.532829,-0.528384,-0.51362,-0.735435,-0.610013,-0.793277,-0.660043,1.787957,-1.102682,1.792478,1.853543,1.852813,1.945632,2.175655,2.537094,2.619635,2.495791,2.545451,0.974314,1.026801,0.718862,0.121419,0.474378,0.270686,0.4954,-1.070642,0.564797,-0.259388,-0.294064,-0.229448,-0.231983,-0.156571,-0.358658,-0.425676,0.009638,-0.304776,-0.638333,-0.265933,0.400884,-0.502814,-0.422741,-0.396633,-0.40478,-0.364593,0.817882,-0.293091,-0.467729,-0.397111,-0.371005,-0.388711,-0.624755,-0.782703,-0.634918,'\'(6.266667-10.533333]\''
-0.545419,-0.538308,-0.588877,-0.584208,-0.605716,-0.495823,-0.411205,-0.420677,-0.400161,-0.568893,-0.287269,-0.602449,-0.570327,-0.725222,0.044423,-0.512012,-0.412843,-0.401882,0.102112,-0.065782,-0.516498,-0.289465,-0.347938,'\'(14.9-27.8]\'',1.328845,0.342,0.058631,0.089823,0.040023,0.175105,-0.395843,0.896989,1.966197,-0.473386,0.93185,1.015705,0.778581,-0.452107,-0.23911,-0.007782,-0.193365,-0.283726,-0.32577,-0.034277,-0.473677,-0.144973,0.409026,0.244738,-0.527534,0.732653,0.538514,0.416794,0.239468,-0.778176,0.730137,0.557486,-0.432723,-0.788083,-0.441812,-0.455809,1.075852,-0.389506,-0.561498,-0.516889,-0.582217,-0.533011,-0.530506,-0.509921,-0.733445,-0.605473,-0.776087,-0.649683,1.455818,-1.021785,1.90623,1.850599,1.965375,1.974677,2.112162,2.345845,2.399264,2.28321,2.366781,0.150903,0.274407,0.060046,-0.396383,0.008029,0.273491,0.487411,-1.083975,0.468429,-0.262452,-0.298328,-0.23245,-0.241285,-0.139831,-0.376303,-0.42215,0.028858,-0.303384,-0.635491,-0.262555,0.410056,-0.498345,-0.419204,-0.392752,-0.399825,-0.360045,0.824392,-0.288898,-0.463605,-0.393431,-0.371005,-0.383243,-0.620663,-0.77905,-0.635033,'\'(6.266667-10.533333]\''
-0.535244,-0.524668,-0.579877,-0.586106,-0.597803,-0.501534,-0.41204,-0.420822,-0.410015,-0.593907,-0.28333,-0.600927,-0.579577,-0.735476,0.049698,-0.51886,-0.404201,-0.361163,0.012078,-0.009907,-0.454552,-0.284001,-0.337187,'\'(14.9-27.8]\'',0.996459,0.502266,0.022001,0.086419,-0.008431,0.202693,-0.385995,0.901422,1.938378,-0.454828,0.925705,1.022526,0.753813,-0.442569,-0.225217,0.007506,-0.178395,-0.273911,-0.318918,-0.034277,-0.61481,-0.144973,0.702783,0.496739,-0.305313,0.941945,0.860049,0.398312,0.557333,-0.883369,0.695331,0.459387,-0.470531,-0.804341,-0.441891,-0.450231,1.160529,-0.389076,-0.559143,-0.512651,-0.581524,-0.532374,-0.52903,-0.50606,-0.731146,-0.603317,-0.796028,-0.648359,1.427949,-1.034772,1.811899,1.809385,1.933214,1.929496,2.039598,2.297223,2.330398,2.204891,2.270574,0.283711,0.417362,0.147889,-0.327695,0.038116,0.345534,0.519063,-1.195538,0.520648,-0.262452,-0.29975,-0.23395,-0.247929,-0.137781,-0.395305,-0.418624,0.035265,-0.299211,-0.633218,-0.259177,0.422285,-0.493876,-0.414488,-0.388871,-0.396109,-0.35803,0.83404,-0.287437,-0.462059,-0.38975,-0.371005,-0.379142,-0.620705,-0.777608,-0.634224,'\'(6.266667-10.533333]\''
-0.539143,-0.530924,-0.584041,-0.579651,-0.595064,-0.502355,-0.396181,-0.401828,-0.383683,-0.607453,-0.225996,-0.592853,-0.59362,-0.729065,0.025264,-0.508406,-0.385262,-0.327588,0.050037,0.003397,-0.448306,-0.278943,-0.332321,'\'(14.9-27.8]\'',1.131062,0.316223,0.015341,0.106841,-0.026602,0.314215,-0.377,0.905856,1.868832,-0.44587,0.927753,1.025936,0.753813,-0.433881,-0.209388,0.019287,-0.159447,-0.262226,-0.314718,-0.165169,-0.755943,-0.144973,0.419518,0.615328,-0.477029,0.583945,0.5477,0.311182,0.334827,-0.801552,0.575997,0.44155,-0.463745,-0.771555,-0.446678,-0.445648,1.245207,-0.388953,-0.556703,-0.509295,-0.581409,-0.53192,-0.527461,-0.500569,-0.729503,-0.599258,-0.724363,-0.649372,1.485338,-1.06701,1.448445,1.538553,1.730604,1.735864,1.834002,2.144873,2.206439,2.193702,2.129699,1.120403,1.049373,0.74396,0.348618,0.489422,0.361241,0.531915,-1.267495,0.54201,-0.265516,-0.301171,-0.23245,-0.265203,-0.156134,-0.426522,-0.413923,0.044875,-0.289472,-0.629808,-0.25411,0.419228,-0.490301,-0.409772,-0.383696,-0.392392,-0.35452,0.829688,-0.28264,-0.458823,-0.387297,-0.372098,-0.37504,-0.617979,-0.775377,-0.634801,'\'(6.266667-10.533333]\''
-0.532121,-0.522656,-0.566041,-0.565934,-0.584218,-0.495634,-0.388541,-0.393531,-0.374692,-0.581755,-0.231776,-0.584518,-0.588031,-0.724638,0.018753,-0.503543,-0.345089,-0.272838,0.045343,-0.024807,-0.434393,-0.274228,-0.321339,'\'(14.9-27.8]\'',1.088483,0.275877,-0.033499,-0.034411,-0.030387,0.256934,-0.365859,0.91226,1.831496,-0.428592,0.924476,1.025936,0.745887,-0.423178,-0.187405,0.02873,-0.12766,-0.252411,-0.30654,-0.034277,-0.61481,-0.208211,0.679177,1.267566,-0.285112,0.567422,0.905982,0.71515,0.891091,-0.427534,0.77986,0.842867,-0.412586,-0.779977,-0.442759,-0.441584,1.160529,-0.388175,-0.552917,-0.499112,-0.579964,-0.531283,-0.525523,-0.494871,-0.726804,-0.595945,-0.710969,-0.648203,1.476035,-1.072089,1.293076,1.217675,1.367191,1.39378,1.507467,1.908244,2.003284,2.066899,1.971645,0.4298,0.921466,0.725137,0.46486,0.539567,0.317566,0.500975,-1.229066,0.531567,-0.259388,-0.296907,-0.230949,-0.259887,-0.178555,-0.400734,-0.411572,0.044875,-0.28808,-0.626398,-0.25411,0.41617,-0.486726,-0.407414,-0.382403,-0.389915,-0.352414,0.838358,-0.284451,-0.456073,-0.382389,-0.372098,-0.369572,-0.618336,-0.773288,-0.634748,'\'(6.266667-10.533333]\''
-0.523026,-0.515469,-0.564088,-0.56407,-0.586663,-0.49465,-0.379838,-0.380639,-0.360849,-0.562028,-0.224083,-0.578357,-0.593279,-0.727142,0.000751,-0.498695,-0.381912,-0.387164,0.040169,0.067254,-0.402461,-0.261395,-0.313087,'\'(14.9-27.8]\'',1.05964,0.52468,-0.054035,-0.048026,-0.052343,0.156869,-0.361913,0.92901,1.763413,-0.406195,0.927344,1.034122,0.740933,-0.420314,-0.184767,0.039881,-0.128654,-0.243063,-0.31295,-0.034277,-0.61481,-0.144973,0.47722,0.941447,-0.436626,0.919914,-0.049436,0.670264,1.050024,-0.497663,0.754999,0.700177,-0.446185,-0.827759,-0.446105,-0.439347,1.160529,-0.387335,-0.54871,-0.487575,-0.577538,-0.529919,-0.522847,-0.491915,-0.724625,-0.591449,-0.697173,-0.649606,1.545908,-1.10037,1.001758,1.043989,1.190309,1.222739,1.359316,1.823965,1.979181,2.007228,1.944157,1.173526,1.515857,1.340032,0.935108,1.025974,0.38985,0.543894,-1.333179,0.547232,-0.259388,-0.295486,-0.23245,-0.266531,-0.268272,-0.419735,-0.409222,0.048078,-0.290863,-0.623557,-0.25411,0.413113,-0.483151,-0.406235,-0.381109,-0.387437,-0.348201,0.83323,-0.283466,-0.450689,-0.377482,-0.364451,-0.365471,-0.62122,-0.770788,-0.634623,'\'(6.266667-10.533333]\''
-0.524495,-0.51699,-0.552718,-0.567968,-0.58231,-0.495708,-0.389021,-0.389548,-0.37827,-0.583057,-0.236967,-0.580122,-0.587802,-0.726076,0.000214,-0.50234,-0.411313,-0.476428,-0.02789,0.007122,-0.453198,-0.256899,-0.310489,'\'(14.9-27.8]\'',1.466195,0.477609,-0.11897,-0.114397,-0.111397,0.087431,-0.353549,0.928517,1.748039,-0.395956,0.921609,1.030029,0.733007,-0.41194,-0.177204,0.050403,-0.122206,-0.232313,-0.301014,-0.165169,-0.61481,-0.271449,0.736879,0.719093,-0.37602,0.64453,1.402065,0.760035,1.8129,-0.789864,0.640636,1.003394,-0.396623,-0.79083,-0.436344,-0.437847,1.245207,-0.386229,-0.544335,-0.475567,-0.578462,-0.529555,-0.520817,-0.492422,-0.723059,-0.587535,-0.657402,-0.644075,1.401843,-1.063364,0.993435,0.923291,1.093828,1.132377,1.265589,1.778584,1.937862,1.98858,1.896054,0.801663,1.433094,1.283562,0.924541,0.970814,0.469025,0.605487,-1.448859,0.565746,-0.259388,-0.296907,-0.23395,-0.286463,-0.261146,-0.438737,-0.406871,0.051282,-0.285298,-0.621283,-0.250732,0.413113,-0.48047,-0.402698,-0.377228,-0.382482,-0.340723,0.837515,-0.278828,-0.442785,-0.371348,-0.357897,-0.358635,-0.620121,-0.770127,-0.634582,'\'(6.266667-10.533333]\''
-0.523431,-0.515763,-0.547946,-0.562667,-0.57608,-0.489783,-0.381274,-0.38476,-0.361337,-0.599601,-0.193999,-0.587259,-0.583695,-0.734337,-0.005725,-0.50983,-0.191402,-0.422568,-0.123667,0.020425,-0.426534,-0.252184,-0.302171,'\'(14.9-27.8]\'',1.196989,0.383467,-0.060695,0.014942,-0.089441,0.185626,-0.349415,0.903393,1.731202,-0.399796,0.903995,1.010248,0.719137,-0.406211,-0.170697,0.051212,-0.114706,-0.222498,-0.298141,-0.230615,-0.61481,-0.397925,0.529676,0.822858,-1.173994,0.749176,1.16321,0.765316,1.606288,-0.766488,0.466606,1.431466,-0.435026,-0.654553,-0.434283,-0.434097,1.245207,-0.384877,-0.540684,-0.470858,-0.580195,-0.530373,-0.521555,-0.48898,-0.72068,-0.582029,-0.60177,-0.636831,1.223738,-1.011996,1.035052,1.073427,1.257846,1.258238,1.347223,1.843414,1.982625,2.007228,1.885746,0.961033,1.470713,1.271013,0.871704,0.880553,0.585624,0.667831,-1.515523,0.711484,-0.257856,-0.296907,-0.238453,-0.293107,-0.206354,-0.430593,-0.399819,0.080112,-0.278341,-0.617873,-0.240598,0.434514,-0.476001,-0.395624,-0.372053,-0.375049,-0.333733,0.863186,-0.271299,-0.437687,-0.36644,-0.352435,-0.355901,-0.61951,-0.768488,-0.631092,'\'(6.266667-10.533333]\''
-0.517696,-0.508722,-0.549227,-0.548993,-0.573094,-0.486815,-0.370549,-0.376442,-0.363696,-0.58082,-0.213499,-0.576293,-0.587145,-0.726894,0.003433,-0.495152,-0.349423,-0.432296,-0.055572,0.082154,-0.389237,-0.238071,-0.287902,'\'(14.9-27.8]\'',1.262917,0.373381,-0.05792,0.014942,-0.085656,0.134424,-0.338715,0.923098,1.728273,-0.356282,0.892936,0.998652,0.70923,-0.396799,-0.15522,0.065062,-0.091043,-0.210813,-0.287973,-0.034277,-0.61481,-0.208211,0.970311,1.045212,0.007816,1.035576,1.016223,0.936936,1.510928,-0.252213,0.834555,1.012312,-0.446538,-0.716522,-0.437706,-0.433988,1.160529,-0.384263,-0.538648,-0.470328,-0.578751,-0.530192,-0.521648,-0.483166,-0.718597,-0.575852,-0.553781,-0.638,1.275833,-1.035049,1.057247,1.179405,1.338247,1.422825,1.519561,1.969832,2.10314,2.167596,2.0438,1.611793,1.703955,1.440423,1.056633,1.071104,0.584662,0.642504,-1.452388,0.850577,-0.257856,-0.298328,-0.239954,-0.317024,-0.173849,-0.431951,-0.393943,0.092925,-0.268602,-0.614464,-0.233842,0.446743,-0.471532,-0.38973,-0.365585,-0.370093,-0.327811,0.869899,-0.264025,-0.43279,-0.365214,-0.357897,-0.3518,-0.609068,-0.762876,-0.629144,'\'(6.266667-10.533333]\''
-0.520206,-0.511666,-0.545736,-0.550609,-0.565466,-0.491278,-0.379523,-0.3901,-0.380777,-0.605764,-0.22276,-0.585551,-0.587744,-0.733526,0.001812,-0.502191,-0.365856,-0.387713,-0.1455,0.018829,-0.440691,-0.237978,-0.289644,'\'(14.9-27.8]\'',1.235447,0.431659,-0.058475,-0.036113,-0.0637,0.21602,-0.332529,0.914724,1.762681,-0.334524,0.871226,0.974777,0.691396,-0.390094,-0.145548,0.06767,-0.080448,-0.200998,-0.280237,-0.034277,-0.897076,-0.144973,1.02539,1.534391,-0.365919,0.980499,1.337758,0.770596,1.399676,-0.33403,0.67047,0.869622,-0.454778,-0.812447,-0.440612,-0.433319,1.160529,-0.383485,-0.5371,-0.467679,-0.577133,-0.5291,-0.520263,-0.484681,-0.716526,-0.570804,-0.469203,-0.637065,1.263894,-1.036161,0.971239,1.023382,1.154932,1.206603,1.30187,1.804516,1.955078,2.044522,1.981953,1.06728,1.553477,1.36513,1.046066,1.136293,0.417577,0.582337,-1.232007,0.764178,-0.250197,-0.2898,-0.236952,-0.328983,-0.15479,-0.391233,-0.391592,0.092925,-0.261646,-0.611054,-0.228775,0.455915,-0.468851,-0.386193,-0.361704,-0.366377,-0.325614,0.877118,-0.261357,-0.431243,-0.360306,-0.355712,-0.347699,-0.596119,-0.755556,-0.629535,'\'(6.266667-10.533333]\''
-0.517254,-0.507569,-0.530971,-0.532372,-0.561717,-0.48784,-0.373821,-0.385348,-0.374735,-0.604281,-0.213565,-0.582715,-0.586339,-0.7348,0.018307,-0.49796,-0.370263,-0.343983,-0.151225,0.069915,-0.390507,-0.241006,-0.289776,'\'(14.9-27.8]\'',1.240941,0.500024,-0.11453,0.035364,-0.171966,0.190302,-0.323881,0.908812,1.723881,-0.319806,0.858527,0.962499,0.678517,-0.381092,-0.132709,0.073605,-0.064284,-0.189781,-0.270511,-0.099723,-0.755943,-0.208211,0.655572,1.015565,-0.194203,0.539884,0.942729,0.88941,1.415569,-0.158709,0.819639,0.860704,-0.420991,-0.79646,-0.440373,-0.433497,0.991166,-0.382522,-0.534727,-0.462382,-0.57644,-0.529646,-0.520817,-0.482694,-0.714426,-0.565819,-0.418398,-0.633716,1.189677,-1.01022,0.888006,0.864415,1.003779,1.019425,1.096274,1.587336,1.755367,1.854318,1.858258,0.562609,1.275091,1.189445,0.935108,1.106206,0.433765,0.581188,-1.211224,0.8107,-0.245601,-0.285536,-0.23245,-0.340942,-0.194522,-0.385804,-0.389242,0.089722,-0.26582,-0.607644,-0.232153,0.443686,-0.462595,-0.382656,-0.361704,-0.363899,-0.322012,0.863692,-0.262723,-0.425372,-0.359079,-0.355712,-0.344964,-0.579965,-0.746613,-0.626213,'\'(6.266667-10.533333]\''
-0.512446,-0.501142,-0.537857,-0.55871,-0.565071,-0.488899,-0.369607,-0.377614,-0.36475,-0.608575,-0.192908,-0.581496,-0.591608,-0.732935,0.007062,-0.497367,-0.359399,-0.356596,-0.181556,0.064593,-0.422416,-0.249405,-0.303815,'\'(14.9-27.8]\'',1.289014,0.456315,-0.10454,-0.012287,-0.137139,0.188666,-0.319241,0.889106,1.679957,-0.318527,0.843781,0.944082,0.6696,-0.375205,-0.124092,0.078911,-0.054995,-0.179966,-0.265207,-0.099723,-0.755943,-0.144973,0.64508,1.48992,-0.365919,0.50133,0.832489,0.907893,1.463249,-0.158709,0.784833,0.958803,-0.385321,-0.725169,-0.430483,-0.43081,1.245207,-0.381047,-0.53084,-0.453376,-0.574418,-0.528372,-0.519433,-0.48091,-0.712489,-0.562015,-0.398612,-0.6306,1.12454,-0.981336,0.76593,0.723111,0.833328,0.838702,0.896725,1.347465,1.51778,1.563418,1.600561,0.270431,1.049373,1.032584,0.755463,0.950756,0.399386,0.55257,-1.147501,0.772723,-0.250197,-0.291222,-0.241454,-0.348915,-0.210657,-0.406163,-0.385716,0.112146,-0.26582,-0.603666,-0.230464,0.431457,-0.45902,-0.379119,-0.359117,-0.360183,-0.31786,0.8616,-0.257799,-0.421448,-0.356626,-0.356804,-0.34223,-0.571678,-0.742398,-0.622616,'\'(6.266667-10.533333]\''
-0.510467,-0.501534,-0.528409,-0.555704,-0.564025,-0.499058,-0.379409,-0.386661,-0.37397,-0.606115,-0.210812,-0.585889,-0.601493,-0.741517,0.001485,-0.504931,-0.398234,-0.343966,-0.268479,0.050225,-0.440945,-0.238321,-0.293886,'\'(14.9-27.8]\'',1.312363,0.497783,-0.093995,0.043873,-0.147738,0.122501,-0.313276,0.867923,1.611142,-0.312127,0.826167,0.917479,0.665637,-0.367902,-0.121278,0.078372,-0.051586,-0.169683,-0.23824,-0.099723,-0.61481,-0.208211,0.666063,0.704269,-0.527534,0.78773,1.062157,0.857727,1.097704,-0.14702,0.754999,1.039067,-0.415825,-0.77124,-0.428243,-0.43111,1.160529,-0.379654,-0.527996,-0.446606,-0.573205,-0.528009,-0.518972,-0.474918,-0.710547,-0.557673,-0.355165,-0.627796,1.072484,-0.949989,0.863036,0.784931,0.875137,0.874201,0.914866,1.37988,1.569429,1.574606,1.610869,-0.114713,0.861274,0.907096,0.586385,0.790292,0.266279,0.476274,-0.951629,0.701515,-0.248665,-0.291222,-0.245957,-0.352901,-0.204405,-0.42245,-0.383365,0.115349,-0.264428,-0.600256,-0.230464,0.422285,-0.454551,-0.375582,-0.356529,-0.357705,-0.314106,0.857046,-0.256909,-0.416608,-0.352945,-0.353527,-0.338129,-0.562259,-0.735851,-0.622862,'\'(6.266667-10.533333]\''
-0.51052,-0.498787,-0.515278,-0.527188,-0.55543,-0.492559,-0.368387,-0.377138,-0.360649,-0.587966,-0.202462,-0.584628,-0.599046,-0.732756,0.001415,-0.49571,-0.396874,-0.366906,-0.230698,0.060336,-0.377188,-0.239226,-0.284417,'\'(14.9-27.8]\'',1.153038,0.454074,-0.1334,-0.000374,-0.181808,0.244777,-0.307216,0.866445,1.559897,-0.296769,0.817975,0.904519,0.664646,-0.361764,-0.115122,0.088354,-0.040763,-0.157064,-0.238461,-0.034277,-0.61481,-0.081735,0.82081,0.882153,-0.214405,0.633515,1.466372,1.150801,1.447355,-0.006764,0.924057,1.422547,-0.387855,-0.734671,-0.424075,-0.431083,0.991166,-0.3782,-0.525556,-0.441132,-0.572916,-0.527918,-0.518787,-0.471419,-0.70822,-0.554181,-0.32122,-0.631068,1.167073,-0.972953,0.868584,0.832033,0.894433,0.912927,0.972312,1.415536,1.576316,1.604442,1.634921,0.111061,0.92899,0.907096,0.618087,0.815365,0.178289,0.439871,-0.944962,0.724777,-0.251729,-0.294064,-0.245957,-0.379476,-0.190085,-0.441452,-0.381015,0.118552,-0.269993,-0.596278,-0.232153,0.425342,-0.450976,-0.374403,-0.356529,-0.356466,-0.309039,0.862005,-0.258116,-0.410021,-0.351718,-0.351342,-0.336762,-0.550238,-0.728585,-0.623476,'\'(6.266667-10.533333]\''
-0.504257,-0.491722,-0.497182,-0.522902,-0.538296,-0.485061,-0.362755,-0.3726,-0.346105,-0.590707,-0.175235,-0.587357,-0.590439,-0.736115,0.048838,-0.494851,-0.290458,-0.533821,-0.250949,0.104504,-0.357579,-0.220055,-0.265939,'\'(14.9-27.8]\'',1.22858,0.515714,-0.14228,-0.046324,-0.17348,0.263948,-0.300746,0.857577,1.49767,-0.278212,0.802409,0.880645,0.661674,-0.354744,-0.108263,0.091861,-0.0369,-0.143509,-0.234262,-0.034277,-0.61481,-0.081735,0.64508,1.104507,-0.396222,0.424223,1.227517,1.435955,1.113597,-0.217149,0.904168,2.769189,-0.386885,-0.674414,-0.417153,-0.430687,0.991166,-0.376746,-0.52347,-0.436894,-0.571818,-0.526462,-0.517587,-0.465873,-0.705636,-0.548181,-0.268248,-0.634339,1.265974,-0.995907,0.874133,0.864415,0.881569,0.896791,0.978359,1.415536,1.590089,1.611901,1.628049,0.111061,0.913942,0.919644,0.618087,0.795307,0.210103,0.430627,-0.98398,0.78554,-0.262452,-0.304014,-0.247457,-0.394093,-0.172135,-0.445523,-0.378664,0.124959,-0.269993,-0.592868,-0.228775,0.428399,-0.448295,-0.370866,-0.353942,-0.353989,-0.306444,0.860082,-0.25621,-0.4071,-0.349265,-0.346973,-0.335395,-0.509786,-0.709947,-0.621947,'\'(6.266667-10.533333]\''
-0.497675,-0.483675,-0.517936,-0.537671,-0.556423,-0.492163,-0.36573,-0.373271,-0.350188,-0.599844,-0.174961,-0.588804,-0.600556,-0.73838,0.007062,-0.498996,-0.318393,-0.366604,-0.304749,0.066722,-0.391876,-0.212562,-0.259692,'\'(14.9-27.8]\'',1.132435,0.487696,-0.112865,0.101736,-0.199221,0.25109,-0.294812,0.85807,1.455942,-0.267973,0.798313,0.877916,0.65573,-0.348858,-0.103163,0.098516,-0.032781,-0.130423,-0.230725,-0.034277,-0.61481,-0.018497,1.059487,2.171806,-0.194203,0.88136,1.071343,0.979181,1.590395,-0.170397,0.769916,1.163921,-0.40157,-0.685357,-0.41583,-0.425928,1.160529,-0.375824,-0.521518,-0.435481,-0.571067,-0.525553,-0.516572,-0.467305,-0.70302,-0.544253,-0.249907,-0.632703,1.233248,-0.972998,0.893555,0.855583,0.900865,0.916154,0.960218,1.376639,1.545326,1.593254,1.586817,-0.06159,0.770987,0.794156,0.554682,0.700031,0.076515,0.214254,-0.871632,0.768451,-0.245601,-0.2898,-0.245957,-0.363531,-0.13015,-0.461811,-0.373963,0.131366,-0.26582,-0.589458,-0.225398,0.434514,-0.443826,-0.36615,-0.350061,-0.349033,-0.30388,0.869831,-0.251318,-0.405926,-0.348038,-0.35025,-0.33266,-0.493742,-0.701967,-0.620719,'\'(6.266667-10.533333]\''
-0.495557,-0.481149,-0.514445,-0.526056,-0.553495,-0.485149,-0.35337,-0.358743,-0.332724,-0.557602,-0.178763,-0.579689,-0.598363,-0.731854,0.027579,-0.486328,-0.347105,-0.427795,-0.234716,0.109294,-0.331363,-0.212874,-0.254431,'\'(14.9-27.8]\'',1.186002,0.38795,-0.161706,-0.214806,-0.125025,0.193342,-0.288184,0.853636,1.397376,-0.260934,0.793807,0.871095,0.654739,-0.341964,-0.097183,0.101844,-0.024884,-0.114999,-0.226305,-0.099723,-0.61481,-0.018497,0.702783,1.030389,-0.58814,0.820776,0.988663,0.844525,1.622181,-0.556103,0.675442,1.155003,-0.445172,-0.810195,-0.425118,-0.422764,0.991166,-0.374923,-0.519869,-0.436364,-0.569045,-0.524734,-0.516296,-0.462636,-0.700596,-0.540693,-0.224318,-0.623902,1.030162,-0.879265,0.910201,0.846752,0.926594,0.906473,0.920913,1.243737,1.386934,1.417968,1.459687,-0.313925,0.417362,0.467885,0.274646,0.484407,0.045582,0.109203,-0.836144,0.814973,-0.236409,-0.27985,-0.242955,-0.342271,-0.087292,-0.494385,-0.368086,0.140976,-0.258863,-0.58548,-0.216953,0.431457,-0.438464,-0.359076,-0.343593,-0.341601,-0.299393,0.873643,-0.243123,-0.402947,-0.345584,-0.352435,-0.328559,-0.495994,-0.701674,-0.617133,'\'(6.266667-10.533333]\''
-0.487129,-0.470575,-0.499872,-0.534597,-0.545872,-0.465053,-0.339284,-0.347385,-0.304871,-0.555261,-0.132692,-0.581751,-0.574289,-0.729925,0.048628,-0.479882,-0.199554,-0.38851,-0.207425,0.049693,-0.373385,-0.206036,-0.24756,'\'(14.9-27.8]\'',1.089857,0.486575,-0.161151,-0.056535,-0.194679,0.155232,-0.282945,0.852651,1.35638,-0.255815,0.792169,0.864274,0.660683,-0.336676,-0.092083,0.102293,-0.017612,-0.103781,-0.221884,0.031169,-0.191412,0.107979,1.342752,1.697451,0.017917,1.388067,1.319385,1.113837,1.208957,0.262062,1.202505,0.726931,-0.387513,-0.626676,-0.417125,-0.4199,1.075852,-0.373366,-0.517463,-0.434775,-0.566041,-0.523188,-0.514265,-0.460465,-0.698197,-0.537637,-0.240887,-0.616268,0.873086,-0.79283,0.971239,0.840864,0.881569,0.854838,0.85742,1.065455,1.207883,1.272517,1.318812,-0.885001,-0.161981,0.003576,-0.047659,0.168494,0.024426,0.096471,-0.826144,0.905169,-0.22875,-0.269901,-0.236952,-0.344928,-0.2078,-0.488956,-0.36221,0.144179,-0.251907,-0.58207,-0.208508,0.431457,-0.434889,-0.355539,-0.337124,-0.336645,-0.294204,0.871079,-0.235022,-0.398623,-0.336996,-0.341511,-0.320357,-0.499193,-0.699177,-0.60974,'\'(6.266667-10.533333]\''
-0.488026,-0.475089,-0.498527,-0.510696,-0.539889,-0.45432,-0.319599,-0.329983,-0.268996,-0.512209,-0.105413,-0.579221,-0.571653,-0.719571,0.089876,-0.457176,-0.248229,-0.381811,-0.061261,0.045436,-0.308542,-0.195795,-0.225498,'\'(-inf-14.9]\'',1.007447,0.340879,-0.227196,-0.058237,-0.284017,0.068727,-0.279063,0.858563,1.33149,-0.242377,0.789301,0.859499,0.660683,-0.333182,-0.0905,0.097347,-0.014998,-0.095368,-0.217242,0.096615,-0.473677,-0.018497,1.421436,2.260748,0.129027,1.40459,1.117277,1.253774,1.685754,0.367255,0.95389,1.297693,-0.360138,-0.747506,-0.409559,-0.419081,0.906488,-0.373039,-0.51578,-0.434304,-0.567774,-0.523279,-0.513804,-0.458498,-0.695627,-0.53453,-0.219691,-0.615567,0.87549,-0.768917,0.935171,0.829089,0.871921,0.861292,0.87556,1.049248,1.18378,1.231493,1.270709,-0.632665,-0.101789,0.041223,-0.037092,0.163479,-0.006186,0.067773,-0.865946,0.959762,-0.236409,-0.27985,-0.244456,-0.362202,-0.35177,-0.472669,-0.357509,0.144179,-0.24495,-0.576955,-0.203441,0.431457,-0.429526,-0.349644,-0.333243,-0.336645,-0.287062,0.875802,-0.23102,-0.390948,-0.340677,-0.35025,-0.323091,-0.486245,-0.694086,-0.60026,'\'(6.266667-10.533333]\''
-0.481181,-0.467018,-0.501826,-0.519877,-0.545698,-0.468454,-0.341685,-0.352224,-0.295702,-0.524838,-0.141302,-0.589834,-0.578295,-0.720219,0.087413,-0.468091,-0.327728,-0.471465,-0.155616,0.038518,-0.429096,-0.18955,-0.23888,'\'(14.9-27.8]\'',1.258797,0.514594,-0.10565,0.151089,-0.211335,0.081586,-0.275433,0.836394,1.204841,-0.244936,0.77988,0.844492,0.659693,-0.328145,-0.089973,0.095549,-0.012953,-0.079945,-0.207517,-0.165169,-0.61481,-0.018497,1.096206,2.497926,0.068421,0.57293,1.273451,1.042549,1.304316,0.367255,0.794777,1.083658,-0.383723,-0.70166,-0.404048,-0.418154,1.160529,-0.37226,-0.513963,-0.426063,-0.570027,-0.524552,-0.51528,-0.458098,-0.692951,-0.531518,-0.206854,-0.606843,0.720627,-0.657646,0.857487,0.805538,0.868705,0.845156,0.839279,0.939037,1.015058,1.089772,1.157322,-0.420172,-0.146933,-0.09054,-0.089928,0.138407,-0.095378,-0.081173,-0.855555,0.946944,-0.257856,-0.305435,-0.262465,-0.411367,-0.603979,-0.469954,-0.359859,0.121756,-0.258863,-0.572409,-0.218642,0.419228,-0.425951,-0.353181,-0.337124,-0.340362,-0.287062,0.869528,-0.247157,-0.385535,-0.33945,-0.346973,-0.31899,-0.479832,-0.69058,-0.600389,'\'(6.266667-10.533333]\''
-0.468029,-0.452422,-0.497278,-0.518311,-0.549983,-0.48291,-0.349669,-0.359929,-0.307183,-0.526193,-0.159995,-0.5907,-0.597546,-0.724583,0.071394,-0.474895,-0.304182,-0.548808,-0.219141,0.023618,-0.435456,-0.178997,-0.227142,'\'(-inf-14.9]\'',1.291761,0.533646,-0.131735,0.088121,-0.218906,0.136295,-0.272687,0.808313,1.010841,-0.238537,0.763905,0.822664,0.652758,-0.323612,-0.082938,0.086915,0.003381,-0.067792,-0.208401,-0.165169,-0.473677,-0.018497,1.169645,1.712275,0.432055,0.765699,1.365318,1.076873,1.495035,0.180245,0.610803,1.565238,-0.395643,-0.747461,-0.396205,-0.415222,1.414563,-0.37056,-0.510564,-0.407757,-0.567947,-0.523916,-0.514542,-0.452297,-0.690169,-0.530303,-0.237373,-0.596796,0.558469,-0.527988,0.752057,0.678953,0.707903,0.670887,0.663917,0.653785,0.698275,0.839896,0.947728,-0.685788,-0.52313,-0.42936,-0.243156,0.023073,-0.127193,-0.14216,-0.781637,0.930804,-0.277772,-0.331021,-0.281975,-0.441928,-0.698906,-0.459096,-0.366911,0.108942,-0.306167,-0.567294,-0.243976,0.419228,-0.420588,-0.361434,-0.348767,-0.347795,-0.29048,0.872327,-0.278097,-0.380408,-0.338223,-0.354619,-0.316255,-0.471752,-0.687045,-0.602477,'\'(6.266667-10.533333]\''
-0.46339,-0.447393,-0.489047,-0.485964,-0.546072,-0.480608,-0.341479,-0.356606,-0.286405,-0.527735,-0.123001,-0.597145,-0.600422,-0.723429,0.084142,-0.465798,-0.357814,-0.492772,-0.167902,0.03639,-0.423738,-0.175999,-0.223361,'\'(-inf-14.9]\'',1.371423,0.623305,-0.186681,-0.082063,-0.218149,0.15757,-0.266785,0.807821,0.800736,-0.2155,0.760628,0.819936,0.648795,-0.317694,-0.075551,0.096628,0.011988,-0.053771,-0.20619,-0.165169,-0.61481,-0.144973,1.319146,2.082865,0.765386,0.650038,1.549052,1.282817,2.035406,0.671144,0.665498,1.484975,-0.416728,-0.798802,-0.401885,-0.414513,1.245207,-0.369024,-0.506407,-0.389332,-0.56581,-0.52246,-0.513158,-0.449302,-0.687431,-0.526228,-0.183649,-0.592356,0.495736,-0.457754,0.616109,0.502323,0.547101,0.512754,0.485532,0.520884,0.532997,0.761577,0.841214,-0.818596,-0.462938,-0.423085,-0.095212,0.113334,-0.137931,-0.177834,-0.720659,0.869091,-0.285431,-0.34097,-0.296983,-0.476476,-0.691208,-0.465882,-0.371612,0.108942,-0.342341,-0.563316,-0.264244,0.41617,-0.41612,-0.367329,-0.357823,-0.353989,-0.293655,0.876713,-0.298777,-0.37826,-0.336996,-0.34588,-0.31899,-0.459401,-0.681888,-0.59941,'\'(6.266667-10.533333]\''
-0.461858,-0.446362,-0.480976,-0.501681,-0.537108,-0.476726,-0.333795,-0.351803,-0.269634,-0.524431,-0.096785,-0.598768,-0.600011,-0.727645,0.099274,-0.462997,-0.316989,-0.374518,-0.162194,-0.002457,-0.462182,-0.16938,-0.218857,'\'(-inf-14.9]\'',1.354942,0.627788,-0.14783,0.047277,-0.222692,0.158739,-0.262777,0.769395,0.588435,-0.232138,0.751207,0.804247,0.648795,-0.311241,-0.064999,0.101214,0.024885,-0.042086,-0.200665,-0.099723,-0.473677,-0.018497,1.111943,1.549215,-0.214405,0.85933,1.69604,1.121758,1.8129,0.460759,0.516329,1.493893,-0.428273,-0.792497,-0.405135,-0.417349,1.245207,-0.366771,-0.501864,-0.378561,-0.565059,-0.522824,-0.513527,-0.449119,-0.684803,-0.521982,-0.139033,-0.591966,0.499325,-0.440306,0.577267,0.508211,0.576045,0.548253,0.549025,0.673234,0.674172,0.873461,0.875573,-0.353768,-0.003978,-0.077991,0.13727,0.233682,-0.176236,-0.257665,-0.676348,0.811175,-0.277772,-0.331021,-0.299984,-0.464517,-0.603912,-0.46724,-0.368086,0.105739,-0.336775,-0.558769,-0.260866,0.419228,-0.414332,-0.364971,-0.355236,-0.351511,-0.290816,0.893006,-0.295061,-0.376771,-0.334543,-0.340418,-0.314888,-0.439271,-0.673116,-0.597182,'\'(6.266667-10.533333]\''
-0.461455,-0.446044,-0.484019,-0.491269,-0.536445,-0.484642,-0.339893,-0.360781,-0.269851,-0.503521,-0.113891,-0.608912,-0.60913,-0.7357,0.121145,-0.471218,-0.266191,-0.474202,-0.23637,0.138029,-0.383606,-0.15202,-0.202845,'\'(14.9-27.8]\'',1.221712,0.667014,-0.09899,0.006433,-0.137896,0.086262,-0.265712,0.727028,0.463983,-0.236617,0.7254,0.761956,0.647804,-0.311462,-0.06711,0.073425,0.029373,-0.029467,-0.203096,-0.165169,-0.61481,-0.018497,1.093583,1.727098,0.209834,0.688591,1.420438,1.103276,1.797007,0.378943,0.645609,1.270939,-0.419273,-0.779121,-0.409122,-0.41709,1.160529,-0.36501,-0.498465,-0.372792,-0.562921,-0.521551,-0.512143,-0.445122,-0.682123,-0.518823,-0.118799,-0.58667,0.42651,-0.381412,0.596688,0.534705,0.595341,0.574071,0.573213,0.712132,0.705161,0.888379,0.892753,-0.340487,0.033641,-0.065442,0.121419,0.223653,-0.186814,-0.252609,-0.701053,0.878585,-0.273176,-0.328178,-0.301485,-0.468504,-0.6703,-0.453667,-0.363385,0.105739,-0.324254,-0.555359,-0.255799,0.428399,-0.408076,-0.359076,-0.348767,-0.345317,-0.285017,0.911188,-0.28912,-0.372303,-0.334543,-0.337141,-0.316255,-0.417975,-0.663447,-0.594646,'\'(6.266667-10.533333]\''
-0.454746,-0.440843,-0.475147,-0.481617,-0.534306,-0.472022,-0.327379,-0.346656,-0.250628,-0.480543,-0.099184,-0.601856,-0.597015,-0.727287,0.1129,-0.460459,-0.193112,-0.497889,-0.176329,0.041179,-0.412524,-0.150615,-0.195151,'\'(14.9-27.8]\'',1.162652,0.491058,-0.127295,0.033662,-0.188622,0.046517,-0.255675,0.713234,0.415666,-0.228299,0.711883,0.746267,0.637896,-0.30057,-0.048468,0.108858,0.043975,-0.014977,-0.203096,-0.165169,-0.473677,-0.081735,0.9231,1.519568,0.522963,0.380161,1.181584,1.076873,2.083086,0.472447,0.531246,1.155003,-0.400281,-0.798531,-0.409802,-0.414172,1.160529,-0.363023,-0.494831,-0.362491,-0.561246,-0.52055,-0.511128,-0.442828,-0.678826,-0.515279,-0.099785,-0.590642,0.503876,-0.409382,0.496808,0.42284,0.473132,0.441756,0.434133,0.524125,0.532997,0.795142,0.830906,-0.473295,-0.131885,-0.153285,0.17954,0.313914,-0.263826,-0.341111,-0.703798,0.835386,-0.285431,-0.342392,-0.31049,-0.465846,-0.733966,-0.446881,-0.36221,0.124959,-0.340949,-0.551381,-0.257488,0.425342,-0.406288,-0.361434,-0.348767,-0.345317,-0.28462,0.92259,-0.292043,-0.371616,-0.332089,-0.337141,-0.313521,-0.396548,-0.653884,-0.588259,'\'(6.266667-10.533333]\''
-0.451753,-0.43471,-0.468645,-0.479282,-0.527871,-0.475516,-0.326404,-0.348099,-0.253356,-0.473216,-0.109749,-0.602298,-0.604279,-0.727551,0.156227,-0.455721,-0.235751,-0.401849,-0.161625,0.063529,-0.363507,-0.149959,-0.188411,'\'(14.9-27.8]\'',1.153038,0.322948,-0.12341,0.081314,-0.204521,0.258805,-0.252045,0.708307,0.276572,-0.21998,0.708606,0.746267,0.629971,-0.296635,-0.040377,0.100855,0.057468,-0.00376,-0.198454,-0.099723,-0.473677,-0.018497,0.98867,2.379337,0.38155,0.35813,1.043783,0.934296,1.797007,0.554264,0.337327,1.11933,-0.436359,-0.810105,-0.41413,-0.414894,1.160529,-0.361302,-0.491482,-0.353073,-0.56113,-0.520277,-0.510943,-0.440255,-0.675314,-0.512922,-0.087672,-0.586903,0.461107,-0.363972,0.388604,0.302143,0.376651,0.341712,0.331335,0.439847,0.488234,0.73547,0.837778,-0.406891,-0.034074,0.009851,0.301065,0.519509,-0.330259,-0.384974,-0.744972,0.871939,-0.279304,-0.335285,-0.31049,-0.46186,-0.615744,-0.450952,-0.361035,0.15379,-0.354862,-0.547403,-0.259177,0.431457,-0.402713,-0.361434,-0.347474,-0.344078,-0.282666,0.933419,-0.291408,-0.369955,-0.329635,-0.331679,-0.312154,-0.383167,-0.647492,-0.58224,'\'(6.266667-10.533333]\''
-0.450455,-0.433213,-0.438764,-0.440246,-0.490534,-0.469923,-0.322333,-0.344327,-0.248189,-0.456974,-0.113848,-0.599779,-0.597618,-0.719474,0.13681,-0.450283,-0.249161,-0.454235,-0.144415,0.089604,-0.379008,-0.142309,-0.18611,'\'(14.9-27.8]\'',1.106339,0.596408,-0.1001,0.076208,-0.170452,0.203161,-0.241125,0.703874,0.166029,-0.222539,0.712293,0.736717,0.652758,-0.28546,-0.031936,0.100225,0.069796,0.007457,-0.17414,-0.034277,-0.473677,-0.018497,0.673931,1.860511,-0.042689,0.303053,0.740622,0.828683,2.114872,0.191934,0.183186,1.137166,-0.380331,-0.766962,-0.408663,-0.418931,0.737132,-0.35952,-0.487898,-0.346833,-0.560033,-0.518549,-0.509282,-0.43707,-0.671903,-0.506716,-0.023754,-0.592122,0.559521,-0.417847,0.310919,0.231491,0.273737,0.277168,0.282959,0.478744,0.584646,0.798872,0.84465,-0.247521,0.266883,0.361219,0.538831,0.669944,-0.33659,-0.379484,-0.776931,0.866242,-0.27624,-0.332442,-0.302986,-0.463189,-0.621761,-0.444166,-0.356333,0.169806,-0.347906,-0.542856,-0.252421,0.437571,-0.399138,-0.355539,-0.343593,-0.339123,-0.277538,0.940098,-0.286103,-0.365401,-0.329635,-0.329494,-0.313521,-0.335939,-0.627383,-0.575902,'\'(6.266667-10.533333]\''
-0.450097,-0.432993,-0.459485,-0.464036,-0.518692,-0.461219,-0.315385,-0.338697,-0.235854,-0.456589,-0.092921,-0.602473,-0.587777,-0.718181,0.187561,-0.442971,-0.248796,-0.498752,-0.116626,0.08109,-0.372176,-0.138531,-0.179929,'\'(14.9-27.8]\'',1.121447,0.548216,-0.172251,-0.105888,-0.187865,0.145881,-0.235223,0.699933,0.149923,-0.212941,0.70369,0.717618,0.659693,-0.279322,-0.028418,0.099416,0.07383,0.01587,-0.161099,-0.165169,-0.473677,-0.081735,0.658195,1.65298,-0.103295,0.220438,1.007036,0.79964,1.622181,0.086741,0.19313,1.377957,-0.405635,-0.725304,-0.410964,-0.414649,0.991166,-0.357984,-0.4846,-0.338946,-0.558935,-0.517276,-0.507806,-0.437216,-0.669284,-0.501086,0.046033,-0.592823,0.577175,-0.419873,0.299821,0.231491,0.264089,0.248123,0.267842,0.449571,0.577759,0.787683,0.858393,-0.260802,0.229264,0.373768,0.544115,0.71006,-0.344924,-0.362242,-0.862025,0.871939,-0.267048,-0.323914,-0.305988,-0.452558,-0.623811,-0.430593,-0.353983,0.160196,-0.349297,-0.538878,-0.252421,0.434514,-0.395563,-0.35436,-0.343593,-0.337884,-0.27473,0.945293,-0.289216,-0.361105,-0.325955,-0.320755,-0.310787,-0.31719,-0.619073,-0.576196,'\'(6.266667-10.533333]\''
-0.447836,-0.429803,-0.464033,-0.469125,-0.521683,-0.453173,-0.307067,-0.328231,-0.214719,-0.430473,-0.077445,-0.602597,-0.580365,-0.714729,0.194867,-0.435925,-0.252894,-0.439743,-0.09346,0.181665,-0.288839,-0.134847,-0.173287,'\'(14.9-27.8]\'',1.021182,0.582959,-0.164481,0.001327,-0.224963,0.052128,-0.229321,0.697962,0.114052,-0.209101,0.701642,0.712161,0.662665,-0.27331,-0.02367,0.101484,0.077978,0.025685,-0.153142,-0.165169,-0.473677,-0.018497,0.506071,1.504744,-0.022487,-0.181623,1.16321,0.71779,1.495035,0.449071,0.063851,1.128248,-0.404214,-0.753361,-0.409154,-0.415208,0.991166,-0.355833,-0.482261,-0.334178,-0.556046,-0.51573,-0.506145,-0.429529,-0.666264,-0.502078,0.007297,-0.586826,0.487361,-0.35403,0.352536,0.255041,0.318762,0.296532,0.29203,0.426881,0.51578,0.720552,0.799982,-0.406891,0.033641,0.141614,0.348618,0.529538,-0.310866,-0.299083,-0.867123,0.861495,-0.26858,-0.325335,-0.305988,-0.449901,-0.611878,-0.430593,-0.351632,0.169806,-0.345123,-0.534332,-0.249043,0.434514,-0.392882,-0.352002,-0.339712,-0.335406,-0.271922,0.95855,-0.287818,-0.358757,-0.322275,-0.310924,-0.308053,-0.330928,-0.624176,-0.57479,'\'(6.266667-10.533333]\''
-0.442815,-0.424088,-0.433863,-0.434464,-0.4927,-0.433502,-0.282523,-0.305947,-0.182268,-0.394596,-0.050293,-0.591584,-0.565937,-0.707149,0.24326,-0.416651,-0.20789,-0.432274,0.013927,0.050758,-0.322781,-0.135565,-0.164969,'\'(14.9-27.8]\'',0.958001,0.321827,-0.187236,-0.04292,-0.23632,0.028982,-0.222977,0.714219,0.073055,-0.187984,0.7041,0.709432,0.672572,-0.268021,-0.020856,0.105171,0.08062,0.038772,-0.149606,-0.099723,-0.332544,0.044741,1.056864,2.112512,0.927001,-0.154084,1.80628,1.401631,1.924153,0.659456,-0.015706,3.179424,-0.36255,-0.693554,-0.406409,-0.421673,0.567777,-0.35188,-0.477768,-0.325172,-0.552233,-0.51291,-0.503469,-0.410586,-0.659749,-0.502191,-0.028638,-0.584099,0.451588,-0.3231,0.593914,0.355132,0.376651,0.341712,0.313194,0.397707,0.467574,0.649692,0.765622,-1.469356,-0.688657,-0.492104,-0.211453,0.043131,-0.327775,-0.306978,-0.836732,0.832063,-0.265516,-0.323914,-0.302986,-0.459202,-0.582667,-0.434665,-0.346931,0.179417,-0.340949,-0.530354,-0.243976,0.434514,-0.390201,-0.348465,-0.335831,-0.33169,-0.269755,0.970998,-0.281147,-0.358872,-0.319821,-0.308739,-0.305319,-0.339654,-0.625473,-0.571654,'\'(6.266667-10.533333]\''
-0.445176,-0.426982,-0.468966,-0.487826,-0.535983,-0.441522,-0.295147,-0.320123,-0.217013,-0.410327,-0.097512,-0.590608,-0.569525,-0.70913,0.215694,-0.423938,-0.315854,-0.41433,-0.068853,0.022554,-0.344152,-0.128259,-0.157571,'\'(-inf-14.9]\'',1.085736,0.324068,-0.183351,-0.013989,-0.243891,-0.030169,-0.217643,0.711756,0.044505,-0.179025,0.698775,0.700565,0.672572,-0.262544,-0.020504,0.114524,0.07758,0.047185,-0.144301,0.096615,-0.332544,0.044741,0.902117,1.964276,1.512855,-0.18713,0.878422,0.839244,1.828794,1.103603,-0.120124,1.181757,-0.417885,-0.73278,-0.409862,-0.414335,1.075852,-0.350754,-0.475093,-0.324583,-0.553158,-0.512728,-0.502915,-0.398658,-0.652887,-0.503595,-0.070688,-0.571715,0.2825,-0.204824,0.46074,0.278592,0.34449,0.306213,0.285983,0.387983,0.457244,0.601208,0.679723,-0.951405,-0.350079,-0.209754,-0.026524,0.158465,-0.410396,-0.378513,-0.707131,0.739493,-0.257856,-0.315385,-0.295482,-0.427312,-0.495942,-0.436023,-0.339879,0.205044,-0.32008,-0.527512,-0.227086,0.437571,-0.386626,-0.339033,-0.325481,-0.321779,-0.262337,0.989956,-0.260118,-0.356981,-0.321048,-0.321848,-0.303951,-0.347013,-0.632151,-0.570256,'\'(6.266667-10.533333]\''
-0.440954,-0.422076,-0.443087,-0.428781,-0.504723,-0.413905,-0.262007,-0.286739,-0.174896,-0.375631,-0.052839,-0.567955,-0.548109,-0.689843,0.257597,-0.3942,-0.259016,-0.427036,0.107784,0.158783,-0.243978,-0.11961,-0.147576,'\'(-inf-14.9]\'',0.993712,0.342,-0.211656,-0.054833,-0.264332,-0.01544,-0.210036,0.743285,0.034988,-0.159188,0.712702,0.7183,0.680498,-0.256973,-0.011007,0.124596,0.086528,0.057,-0.14629,0.292953,-0.050279,0.297693,0.928345,1.371332,0.876496,0.099269,1.438812,0.836604,2.146659,1.337364,0.043962,0.521814,-0.373335,-0.751424,-0.411988,-0.411512,0.567777,-0.350651,-0.474487,-0.327879,-0.555757,-0.515093,-0.505315,-0.400995,-0.649697,-0.505487,-0.143448,-0.558941,0.127954,-0.079922,0.369183,0.340412,0.395947,0.354621,0.340405,0.436605,0.51578,0.608667,0.655672,-0.274083,0.01107,0.103967,0.158405,0.288842,-0.427465,-0.392603,-0.662819,0.613218,-0.253261,-0.3097,-0.283476,-0.415353,-0.527204,-0.449595,-0.335178,0.224264,-0.307558,-0.52467,-0.216953,0.431457,-0.383051,-0.333138,-0.319013,-0.315585,-0.256782,0.995353,-0.243599,-0.355234,-0.321048,-0.326217,-0.301217,-0.353439,-0.635147,-0.569407,'\'(6.266667-10.533333]\''
-0.437726,-0.41766,-0.441422,-0.427154,-0.500254,-0.411081,-0.258819,-0.284751,-0.167817,-0.384222,-0.033712,-0.569127,-0.545763,-0.688508,0.251291,-0.392905,-0.236351,-0.368665,0.082022,0.259891,-0.172967,-0.114989,-0.142612,'\'(-inf-14.9]\'',1.080242,0.317344,-0.237741,-0.148434,-0.258276,-0.087917,-0.202304,0.748704,0.043772,-0.158548,0.715979,0.717618,0.689415,-0.249607,0.000073,0.128553,0.101158,0.068218,-0.140101,0.096615,-0.050279,0.171217,0.776222,1.81604,0.603771,-0.082484,1.181584,0.876209,2.321485,0.729585,0.153352,0.825031,-0.341476,-0.784886,-0.408584,-0.406357,0.652455,-0.350017,-0.473444,-0.329763,-0.554429,-0.515002,-0.505315,-0.399192,-0.645148,-0.507343,-0.204142,-0.549905,0.030862,0.00199,0.377506,0.372795,0.395947,0.357848,0.36157,0.436605,0.51578,0.601208,0.641928,-0.22096,-0.011502,0.085144,0.131987,0.25374,-0.428427,-0.41215,-0.536747,0.543909,-0.251729,-0.308278,-0.281975,-0.411367,-0.507741,-0.419735,-0.330477,0.243484,-0.303384,-0.521261,-0.210197,0.443686,-0.380369,-0.329601,-0.313838,-0.311869,-0.25257,1.00743,-0.23839,-0.35217,-0.31614,-0.312016,-0.298483,-0.350096,-0.63513,-0.567982,'\'(6.266667-10.533333]\''
-0.438772,-0.418568,-0.434824,-0.432028,-0.494824,-0.397336,-0.249775,-0.280485,-0.171433,-0.395833,-0.030614,-0.560326,-0.528485,-0.680316,0.30188,-0.380829,-0.194726,-0.322395,0.131199,0.239669,-0.113733,-0.112928,-0.12992,'\'(-inf-14.9]\'',0.772579,0.141388,-0.226086,-0.041218,-0.290074,-0.073889,-0.19173,0.765946,0.064271,-0.149589,0.723352,0.718982,0.705267,-0.240163,0.01379,0.138985,0.114935,0.082707,-0.130155,-0.034277,-0.61481,0.044741,0.482465,1.312037,0.169431,0.104777,0.5477,0.604257,1.844687,0.484135,0.048934,0.548568,-0.328753,-0.717783,-0.399484,-0.403316,0.652455,-0.347948,-0.471088,-0.32888,-0.551655,-0.51291,-0.503561,-0.397539,-0.640456,-0.504748,-0.186844,-0.552398,0.076744,-0.037548,0.444093,0.458166,0.412027,0.454664,0.503673,0.689442,0.780914,0.783954,0.789674,0.084499,0.39479,0.417689,0.264079,0.349016,-0.463046,-0.496677,-0.46028,0.54296,-0.242537,-0.298328,-0.275972,-0.384791,-0.496379,-0.411592,-0.3246,0.262704,-0.296428,-0.516714,-0.203441,0.46203,-0.375007,-0.322527,-0.308664,-0.305675,-0.246617,1.023757,-0.233148,-0.347187,-0.31614,-0.314201,-0.298483,-0.343038,-0.630662,-0.565053,'\'(6.266667-10.533333]\''
-0.430143,-0.410129,-0.433991,-0.434852,-0.494944,-0.384108,-0.230709,-0.264309,-0.146623,-0.381196,0.000368,-0.551611,-0.521076,-0.676119,0.329385,-0.366716,-0.199981,-0.305429,0.194227,0.308316,-0.071745,-0.091946,-0.108878,'\'(-inf-14.9]\'',0.982724,-0.011032,-0.218871,-0.075255,-0.26509,-0.098438,-0.184503,0.789593,0.086233,-0.132311,0.730316,0.725121,0.713193,-0.234466,0.018891,0.142223,0.120304,0.09112,-0.129492,0.162061,-0.050279,0.171217,0.519185,1.964276,0.331046,-0.076977,0.428273,0.337585,1.526822,0.250374,-0.09029,0.254269,-0.319918,-0.630549,-0.387066,-0.395678,0.737132,-0.347559,-0.470213,-0.329998,-0.551078,-0.513911,-0.504576,-0.395187,-0.636392,-0.504514,-0.241735,-0.552554,0.096723,-0.043936,0.577267,0.59947,0.418459,0.503073,0.654847,0.913105,0.984069,0.962969,0.951164,0.111061,0.552793,0.486708,0.264079,0.344001,-0.4834,-0.520641,-0.391068,0.646923,-0.241005,-0.296907,-0.268468,-0.367517,-0.470429,-0.336942,-0.321074,0.278721,-0.295037,-0.513304,-0.198374,0.468144,-0.371432,-0.31899,-0.304783,-0.301958,-0.242558,1.033034,-0.229463,-0.343693,-0.31246,-0.309831,-0.295749,-0.338953,-0.629415,-0.562172,'\'(6.266667-10.533333]\''
-0.431511,-0.409074,-0.42813,-0.426418,-0.485707,-0.372716,-0.222116,-0.256775,-0.138001,-0.399613,0.029966,-0.544911,-0.50773,-0.670253,0.350054,-0.358201,-0.160516,-0.270981,0.218407,0.300866,-0.033407,-0.103311,-0.115059,'\'(-inf-14.9]\'',0.779447,0.070782,-0.228306,-0.041218,-0.293102,-0.139353,-0.179074,0.789593,0.089893,-0.128472,0.728268,0.723075,0.711211,-0.229051,0.028739,0.14636,0.131184,0.096728,-0.126839,0.031169,-0.191412,0.107979,0.430009,1.326861,0.199733,-0.225684,0.878422,0.395672,1.606288,0.133493,-0.035595,0.39696,-0.303889,-0.633612,-0.374867,-0.390973,0.652455,-0.348091,-0.469927,-0.335473,-0.549749,-0.513456,-0.50393,-0.391566,-0.630902,-0.502761,-0.235781,-0.542973,0.009382,0.05227,0.543973,0.596526,0.421675,0.483709,0.594377,0.835309,0.911759,0.95924,0.9546,0.004814,0.462506,0.430238,0.3222,0.40919,-0.452948,-0.480326,-0.465182,0.63553,-0.236409,-0.291222,-0.259464,-0.358216,-0.449622,-0.324727,-0.315198,0.278721,-0.285298,-0.508758,-0.189929,0.477316,-0.367857,-0.314274,-0.298314,-0.295764,-0.236483,1.046493,-0.22095,-0.339311,-0.310006,-0.304369,-0.294382,-0.327838,-0.623219,-0.561725,'\'(-inf-6.266667]\''
-0.42661,-0.403113,-0.421308,-0.41169,-0.481239,-0.358212,-0.205304,-0.240189,-0.115609,-0.402715,0.070964,-0.536039,-0.49596,-0.664954,0.413859,-0.342423,-0.140011,-0.233999,0.294769,0.306187,0.004251,-0.095256,-0.102302,'\'(-inf-14.9]\'',0.848122,0.040522,-0.320437,-0.167154,-0.362756,-0.15338,-0.168122,0.821615,0.105267,-0.124632,0.751207,0.725803,0.762729,-0.220174,0.038236,0.154633,0.142149,0.106076,-0.118882,0.096615,-0.050279,0.171217,0.380175,1.44545,-0.295212,-0.038423,0.768182,0.37983,1.717541,0.110117,-0.204653,0.602077,-0.277869,-0.566464,-0.361613,-0.388968,0.567777,-0.348132,-0.469186,-0.337003,-0.548651,-0.513365,-0.503746,-0.392849,-0.626547,-0.500734,-0.245461,-0.536196,-0.047014,0.12572,0.502357,0.517042,0.428107,0.409484,0.558096,0.832067,0.928976,0.996535,0.985524,0.044657,0.567841,0.555727,0.454292,0.529538,-0.43051,-0.423434,-0.504003,0.57619,-0.233346,-0.288379,-0.25196,-0.3436,-0.405217,-0.260935,-0.311672,0.278721,-0.274167,-0.505348,-0.184862,0.489546,-0.365176,-0.310737,-0.294433,-0.293287,-0.232759,1.057052,-0.217837,-0.336189,-0.31246,-0.310924,-0.294382,-0.316167,-0.616209,-0.560493,'\'(-inf-6.266667]\''
-0.418963,-0.39254,-0.410515,-0.419243,-0.4685,-0.342065,-0.187452,-0.220789,-0.099241,-0.384625,0.084656,-0.521059,-0.482077,-0.654509,0.4045,-0.331317,-0.050514,-0.265892,0.340835,0.425388,0.095933,-0.082267,-0.088395,'\'(-inf-14.9]\'',0.812411,0.050608,-0.344302,-0.345847,-0.315816,-0.123688,-0.162662,0.846739,0.136746,-0.118233,0.766363,0.764002,0.743905,-0.216334,0.044919,0.166594,0.145018,0.111218,-0.11623,0.096615,-0.050279,0.107979,0.45886,1.400979,0.169431,-0.060454,0.685501,0.366628,1.399676,-0.053516,0.0191,0.459387,-0.335263,-0.692833,-0.354046,-0.388327,0.567777,-0.347743,-0.467638,-0.338534,-0.548767,-0.513911,-0.504207,-0.391998,-0.622678,-0.497883,-0.267425,-0.521164,-0.176642,0.271031,0.543973,0.534705,0.540669,0.535345,0.663917,0.932554,1.035718,1.089772,1.050807,0.310273,0.688224,0.656118,0.507129,0.549596,-0.43059,-0.452745,-0.522434,0.573342,-0.230282,-0.285536,-0.244456,-0.331641,-0.441554,-0.221575,-0.305795,0.301145,-0.264428,-0.501938,-0.176417,0.498718,-0.359813,-0.303663,-0.287965,-0.285854,-0.22638,1.067071,-0.208974,-0.331263,-0.306326,-0.306554,-0.286179,-0.302978,-0.608892,-0.558644,'\'(-inf-6.266667]\''
-0.417679,-0.390405,-0.417209,-0.400447,-0.477659,-0.333537,-0.178511,-0.213301,-0.107442,-0.36631,0.055979,-0.504229,-0.474316,-0.649065,0.430952,-0.316601,-0.223029,-0.207509,0.414601,0.407827,0.127423,-0.091852,-0.093261,'\'(-inf-14.9]\'',0.857736,-0.088363,-0.350962,-0.270966,-0.358213,-0.197802,-0.155497,0.876298,0.174082,-0.122073,0.791349,0.787194,0.770655,-0.211077,0.055999,0.176756,0.153654,0.114957,-0.124408,-0.099723,-0.191412,0.044741,0.694914,1.386155,0.371449,0.347115,0.657941,0.374549,1.22485,0.320502,-0.085318,0.486141,-0.312592,-0.690852,-0.351403,-0.385123,0.483099,-0.34719,-0.465737,-0.337768,-0.547785,-0.512546,-0.503192,-0.383107,-0.618754,-0.496595,-0.278085,-0.529498,-0.086739,0.174278,0.679922,0.728998,0.656446,0.693477,0.85742,1.133526,1.262976,1.279976,1.226041,0.509485,0.786035,0.762784,0.517696,0.559625,-0.457436,-0.49279,-0.434203,0.524921,-0.225686,-0.281272,-0.241454,-0.338285,-0.466698,-0.160498,-0.301094,0.320365,-0.260254,-0.49796,-0.17135,0.498718,-0.355344,-0.298947,-0.284084,-0.282137,-0.220916,1.080834,-0.205543,-0.326166,-0.302645,-0.307647,-0.279344,-0.287154,-0.600813,-0.556678,'\'(-inf-6.266667]\''
-0.408048,-0.378606,-0.418074,-0.402435,-0.479998,-0.304225,-0.143893,-0.175161,-0.051945,-0.304269,0.102078,-0.482273,-0.451078,-0.62479,0.437079,-0.286629,-0.140818,-0.18574,0.596945,0.44082,0.11708,-0.076303,-0.080997,'\'(-inf-14.9]\'',0.881085,0.058453,-0.390923,-0.337338,-0.383198,-0.243393,-0.14,0.920143,0.21947,-0.092637,0.806915,0.806294,0.780563,-0.198423,0.071827,0.189527,0.172459,0.121967,-0.094789,0.162061,0.090854,0.234455,0.222806,1.400979,-0.254809,-0.170607,0.428273,0.197648,1.161277,0.262062,-0.19968,0.174006,-0.285239,-0.633612,-0.344201,-0.373148,0.567777,-0.345428,-0.463162,-0.333648,-0.546745,-0.511364,-0.501993,-0.38094,-0.614429,-0.493496,-0.30035,-0.559486,0.256608,-0.138093,0.699343,0.882078,0.569613,0.709613,0.833232,1.178907,1.297409,1.406779,1.332556,0.310273,0.838703,0.781607,0.660356,0.679973,-0.464568,-0.492503,-0.400087,0.497862,-0.22875,-0.282693,-0.23395,-0.340942,-0.455874,-0.065489,-0.297568,0.342789,-0.258863,-0.495118,-0.167972,0.501775,-0.351769,-0.294231,-0.281497,-0.277182,-0.215758,1.089267,-0.201604,-0.321297,-0.301418,-0.304369,-0.280711,-0.284249,-0.598973,-0.557095,'\'(-inf-6.266667]\''
-0.400889,-0.368965,-0.416408,-0.407207,-0.477411,-0.293315,-0.140735,-0.170739,-0.051184,-0.307444,0.105837,-0.475107,-0.433774,-0.614467,0.477562,-0.275149,-0.204087,-0.14595,0.654284,0.474345,0.198614,-0.075335,-0.073665,'\'(-inf-14.9]\'',0.786314,-0.030085,-0.389258,-0.281177,-0.405911,-0.21183,-0.132614,0.94773,0.198972,-0.086237,0.825758,0.822664,0.802359,-0.19282,0.079214,0.199059,0.179163,0.1215,-0.088158,0.096615,0.090854,0.171217,0.592624,1.386155,0.603771,-0.0219,0.703875,0.224051,1.574502,0.121805,-0.259348,0.245351,-0.282573,-0.621182,-0.338303,-0.366288,0.652455,-0.346043,-0.462473,-0.336591,-0.54426,-0.511273,-0.501531,-0.381715,-0.610509,-0.490194,-0.299985,-0.586903,0.666491,-0.425377,0.532876,0.670122,0.428107,0.548253,0.642753,0.942278,1.070151,1.216575,1.198554,0.270431,0.740891,0.74396,0.70791,0.785278,-0.553921,-0.570969,-0.177745,0.531092,-0.22875,-0.284115,-0.227947,-0.350243,-0.487068,-0.011199,-0.292867,0.365212,-0.254689,-0.491708,-0.162905,0.510947,-0.348194,-0.289515,-0.276322,-0.273465,-0.212675,1.091392,-0.198777,-0.31829,-0.295284,-0.292353,-0.27661,-0.292289,-0.60115,-0.556071,'\'(-inf-6.266667]\''
-0.384216,-0.348382,-0.405583,-0.392653,-0.468853,-0.281139,-0.127415,-0.15707,-0.043455,-0.323203,0.131397,-0.462121,-0.423177,-0.604879,0.513395,-0.261228,-0.204142,-0.113848,0.731783,0.357273,0.136418,-0.069434,-0.064196,'\'(-inf-14.9]\'',0.794555,-0.146642,-0.405908,-0.287985,-0.425596,-0.155718,-0.123493,0.977781,0.192383,-0.06832,0.839685,0.841764,0.808303,-0.185643,0.083787,0.212729,0.181464,0.126174,-0.077549,0.162061,0.231987,0.171217,-0.078819,0.956271,-0.042689,-0.363376,-0.223984,-0.071664,1.320209,-0.287277,-0.572602,0.263187,-0.270103,-0.5167,-0.331923,-0.357424,0.652455,-0.346657,-0.461211,-0.335237,-0.541661,-0.510454,-0.500793,-0.378525,-0.605978,-0.491325,-0.40336,-0.590019,0.736784,-0.473426,0.555071,0.79965,0.453836,0.603116,0.706246,0.974693,1.114914,1.25387,1.219169,0.443081,0.755939,0.775332,0.718477,0.775249,-0.595672,-0.641838,-0.073044,0.487418,-0.231814,-0.286957,-0.223445,-0.352901,-0.543506,0.079738,-0.290517,0.355602,-0.256081,-0.488867,-0.162905,0.504832,-0.344619,-0.287157,-0.275028,-0.270988,-0.209653,1.082588,-0.197951,-0.314137,-0.296511,-0.303277,-0.273875,-0.298207,-0.601036,-0.553743,'\'(-inf-6.266667]\''
-0.385449,-0.355227,-0.393348,-0.396607,-0.466508,-0.281716,-0.121002,-0.146564,-0.031086,-0.333834,0.160834,-0.460774,-0.429932,-0.607414,0.462369,-0.266322,-0.055839,-0.110831,0.681486,0.295544,0.082821,-0.06194,-0.056864,'\'(-inf-14.9]\'',0.668194,0.046125,-0.435323,-0.325425,-0.449066,-0.076929,-0.120589,0.926547,0.165297,-0.123352,0.831902,0.822664,0.81722,-0.179473,0.085018,0.206973,0.178822,0.133185,-0.07357,0.031169,0.231987,0.234455,-0.417164,1.386155,-0.689149,-1.134452,0.198605,-0.338335,1.336103,-0.415846,-0.856022,-0.04003,-0.248996,-0.433294,-0.319442,-0.353482,0.737132,-0.345428,-0.457677,-0.329528,-0.542007,-0.51,-0.500701,-0.376025,-0.602654,-0.489366,-0.396701,-0.582619,0.63146,-0.429581,0.571718,0.581807,0.4667,0.567617,0.651823,0.887173,1.004728,1.168091,1.143578,0.124342,0.507649,0.536904,0.56525,0.634842,-0.58269,-0.64735,-0.127747,0.38298,-0.222622,-0.27985,-0.218943,-0.362202,-0.546229,0.091953,-0.285815,0.371619,-0.258863,-0.483752,-0.159527,0.498718,-0.341044,-0.28362,-0.272441,-0.267271,-0.203304,1.074998,-0.191566,-0.307435,-0.28915,-0.27706,-0.271141,-0.299237,-0.598887,-0.552335,'\'(-inf-6.266667]\''
-0.378738,-0.346641,-0.392003,-0.377075,-0.461803,-0.270494,-0.107972,-0.136396,-0.015683,-0.335817,0.188666,-0.45181,-0.420827,-0.607023,0.487873,-0.259446,0.005252,-0.054812,0.716955,0.332795,0.119156,-0.056102,-0.049927,'\'(-inf-14.9]\'',0.628362,0.000175,-0.422003,-0.316916,-0.434681,-0.155718,-0.106039,0.976304,0.15944,-0.079838,0.845419,0.838353,0.827127,-0.168141,0.107705,0.228107,0.205752,0.135989,-0.068265,0.096615,-0.050279,0.234455,0.112647,1.608509,-0.204304,-0.346853,0.161858,0.173885,1.22485,-0.006764,-0.130068,0.138333,-0.235215,-0.463738,-0.307529,-0.345886,0.652455,-0.345121,-0.453807,-0.320404,-0.545243,-0.512364,-0.502454,-0.37461,-0.600188,-0.486746,-0.400818,-0.5767,0.555954,-0.403349,0.502357,0.496436,0.418459,0.464346,0.546002,0.734823,0.846337,0.989076,0.98896,-0.008467,0.342123,0.405141,0.443725,0.534552,-0.546628,-0.63268,-0.211469,0.300854,-0.224154,-0.282693,-0.21444,-0.348915,-0.559507,0.025448,-0.283465,0.336382,-0.258863,-0.479206,-0.159527,0.504832,-0.336575,-0.281263,-0.271147,-0.264794,-0.200862,1.073379,-0.196267,-0.302825,-0.291604,-0.290168,-0.269774,-0.298461,-0.598537,-0.552158,'\'(-inf-6.266667]\''
-0.374766,-0.344703,-0.379512,-0.349082,-0.449721,-0.265572,-0.104868,-0.132656,-0.020795,-0.321504,0.168778,-0.439391,-0.414512,-0.603704,0.501363,-0.254069,-0.064595,-0.046485,0.744727,0.394524,0.183961,-0.063689,-0.056174,'\'(-inf-14.9]\'',0.60776,-0.025602,-0.418673,-0.238631,-0.464965,-0.217675,-0.097359,1.003399,0.152119,-0.054882,0.854022,0.849267,0.832081,-0.161216,0.117729,0.243845,0.214586,0.14113,-0.055445,0.096615,-0.050279,0.107979,0.267394,1.845687,-0.26491,-0.346853,0.612007,0.403593,2.019513,0.238686,-0.214597,0.432632,-0.244688,-0.547774,-0.303869,-0.340185,0.567777,-0.344281,-0.450391,-0.31387,-0.543683,-0.512364,-0.503654,-0.370733,-0.597077,-0.484214,-0.406871,-0.57078,0.484771,-0.382998,0.502357,0.508211,0.431323,0.457892,0.567166,0.773721,0.901429,0.985346,0.97178,0.084499,0.43241,0.505532,0.438441,0.50948,-0.550876,-0.653009,-0.064809,0.210658,-0.219558,-0.278429,-0.208437,-0.363531,-0.577928,0.051236,-0.279939,0.378026,-0.258863,-0.475796,-0.15446,0.517061,-0.333,-0.275368,-0.265973,-0.261077,-0.195215,1.089841,-0.192805,-0.297641,-0.287923,-0.291261,-0.26704,-0.29601,-0.596256,-0.549654,'\'(-inf-6.266667]\''
-0.370882,-0.337147,-0.385469,-0.358605,-0.452944,-0.252145,-0.090738,-0.114054,0.006913,-0.275225,0.180179,-0.426227,-0.402325,-0.590834,0.526099,-0.234699,-0.121338,-0.034004,0.871013,0.379623,0.259049,-0.053135,-0.036019,'\'(-inf-14.9]\'',0.697037,-0.201558,-0.519129,-0.481994,-0.493735,-0.186346,-0.08969,1.030987,0.147727,-0.038244,0.86631,0.869731,0.832081,-0.155329,0.127402,0.258954,0.223591,0.143935,-0.05434,0.096615,0.231987,0.171217,0.374929,1.267566,0.543165,-0.225684,0.4099,0.150123,1.161277,0.133493,-0.378683,0.432632,-0.243212,-0.500352,-0.299803,-0.334689,0.567777,-0.342991,-0.447026,-0.312575,-0.540794,-0.510545,-0.503008,-0.363092,-0.592845,-0.480893,-0.411559,-0.573195,0.550864,-0.443458,0.582816,0.578863,0.49886,0.554708,0.65787,0.890414,1.021945,1.089772,1.085167,0.09778,0.485078,0.543178,0.433157,0.529538,-0.554081,-0.674959,0.023814,0.144672,-0.21343,-0.271322,-0.197932,-0.346257,-0.522195,0.166603,-0.271712,0.432483,-0.251907,-0.470681,-0.142637,0.523176,-0.328532,-0.268294,-0.256917,-0.252405,-0.187187,1.097397,-0.179272,-0.291884,-0.280562,-0.278152,-0.260204,-0.293861,-0.593341,-0.546189,'\'(-inf-6.266667]\''
-0.369404,-0.335062,-0.376085,-0.353061,-0.446614,-0.256723,-0.099064,-0.12,-0.011753,-0.276034,0.148952,-0.421351,-0.403367,-0.586132,0.479012,-0.240549,-0.120062,-0.104011,0.824769,0.431242,0.243633,-0.058756,-0.04779,'\'(-inf-14.9]\'',0.680555,-0.082759,-0.472508,-0.400306,-0.466479,-0.179098,-0.082431,1.038869,0.135282,-0.037604,0.873683,0.876552,0.840007,-0.148593,0.139186,0.273433,0.235153,0.144402,-0.04793,0.162061,0.231987,0.171217,-0.02374,0.526386,0.017917,-0.40193,0.244539,0.189727,1.113597,0.133493,-0.304098,0.459387,-0.225157,-0.585018,-0.294946,-0.329016,0.567777,-0.342254,-0.444451,-0.308631,-0.540563,-0.511819,-0.503838,-0.355286,-0.588772,-0.47857,-0.406293,-0.578258,0.659564,-0.533798,0.643854,0.676009,0.611422,0.66766,0.775786,1.016833,1.149347,1.17555,1.13327,0.323554,0.612985,0.637295,0.438441,0.489422,-0.531002,-0.676054,0.006756,0.154166,-0.210367,-0.268479,-0.187427,-0.340942,-0.536884,0.24261,-0.268186,0.432483,-0.246342,-0.465566,-0.139259,0.529291,-0.324957,-0.264757,-0.253036,-0.248689,-0.182364,1.103874,-0.175969,-0.287102,-0.276882,-0.275967,-0.256103,-0.292344,-0.590757,-0.543807,'\'(-inf-6.266667]\''
-0.364053,-0.328193,-0.371313,-0.335692,-0.443176,-0.250165,-0.095234,-0.115338,-0.011264,-0.26623,0.142217,-0.411669,-0.394691,-0.586507,0.51177,-0.236112,-0.123247,-0.163767,0.849589,0.362063,0.262633,-0.046204,-0.026912,'\'(-inf-14.9]\'',0.688796,-0.208282,-0.536889,-0.527943,-0.49752,-0.204816,-0.070942,1.065964,0.118444,-0.016487,0.883514,0.892241,0.840998,-0.138866,0.153607,0.292228,0.249186,0.148609,-0.040415,0.162061,0.231987,0.234455,0.125761,1.178625,-0.05279,-0.368884,0.373153,0.29798,1.018237,0.250374,-0.149957,0.512896,-0.190897,-0.462297,-0.287285,-0.318528,0.483099,-0.340902,-0.442365,-0.308631,-0.538079,-0.510545,-0.5031,-0.348916,-0.584992,-0.477712,-0.446389,-0.566885,0.520947,-0.488397,0.760381,0.764324,0.675742,0.716068,0.802997,0.987659,1.090811,1.160632,1.119527,-0.114713,0.229264,0.267103,0.195391,0.258755,-0.489491,-0.649527,-0.175,0.060647,-0.205771,-0.264215,-0.169417,-0.324997,-0.567406,0.264326,-0.262309,0.445297,-0.240776,-0.461588,-0.130814,0.538463,-0.319594,-0.260041,-0.246568,-0.243734,-0.175283,1.116423,-0.170219,-0.280543,-0.273201,-0.271598,-0.253369,-0.286014,-0.586097,-0.5406,'\'(-inf-6.266667]\''
-0.357285,-0.319508,-0.36779,-0.342947,-0.441136,-0.249813,-0.097198,-0.120417,-0.013172,-0.311359,0.173501,-0.42195,-0.392294,-0.585468,0.521754,-0.237713,-0.059705,-0.127467,0.83245,0.410488,0.283302,-0.040209,-0.022539,'\'(-inf-14.9]\'',0.547326,-0.048017,-0.498039,-0.393498,-0.504334,-0.142392,-0.063872,1.073354,0.09941,-0.010727,0.88761,0.905201,0.832081,-0.132287,0.165038,0.303919,0.260407,0.152348,-0.045056,0.162061,0.090854,0.234455,0.09691,1.267566,0.098724,-0.445992,0.207792,0.176526,0.922878,0.004924,-0.209625,0.450469,-0.197473,-0.397266,-0.2802,-0.313796,0.567777,-0.340267,-0.440884,-0.310456,-0.536519,-0.51,-0.502823,-0.342756,-0.581001,-0.47599,-0.485046,-0.568132,0.563745,-0.562936,0.826968,0.861471,0.762575,0.80643,0.881607,1.042765,1.139017,1.197927,1.157322,-0.088151,0.176596,0.204358,0.121419,0.193566,-0.432273,-0.5945,-0.315581,0.0127,-0.191983,-0.251423,-0.15591,-0.328983,-0.602096,0.281971,-0.256433,0.45811,-0.23382,-0.457041,-0.118991,0.547635,-0.316019,-0.254146,-0.238806,-0.236301,-0.167163,1.125261,-0.154939,-0.275274,-0.269521,-0.263951,-0.252002,-0.284407,-0.584145,-0.540663,'\'(-inf-6.266667]\''
-0.353276,-0.315019,-0.361096,-0.341916,-0.436988,-0.238484,-0.08511,-0.108496,0.008792,-0.297758,0.200397,-0.416987,-0.382173,-0.584814,0.532217,-0.234468,0.103324,-0.096871,0.847207,0.420599,0.214933,-0.025846,-0.01524,'\'(-inf-14.9]\'',0.786314,-0.153366,-0.476948,-0.327127,-0.505091,-0.174422,-0.059958,1.053648,0.080376,-0.012007,0.873274,0.896333,0.810285,-0.127124,0.173304,0.314441,0.268986,0.151413,-0.034005,0.031169,-0.050279,0.107979,0.165104,0.896976,-0.224506,-0.346853,0.804929,0.231972,0.716266,-0.100268,-0.189736,0.798277,-0.183879,-0.286524,-0.269842,-0.303703,0.652455,-0.339878,-0.440076,-0.314223,-0.537097,-0.510636,-0.503284,-0.342019,-0.576791,-0.472695,-0.478772,-0.572338,0.651417,-0.655487,0.899103,0.991,0.868705,0.935518,1.008593,1.133526,1.207883,1.25387,1.191682,0.124342,0.191644,0.166712,0.063299,0.113334,-0.392686,-0.587125,-0.332443,0.089605,-0.185856,-0.244316,-0.152909,-0.324997,-0.601222,0.31183,-0.250556,0.413263,-0.221298,-0.453063,-0.113924,0.556806,-0.310657,-0.250609,-0.233631,-0.231346,-0.162188,1.135246,-0.153542,-0.269975,-0.268294,-0.263951,-0.249268,-0.281284,-0.581524,-0.540973,'\'(-inf-6.266667]\''
-0.350301,-0.310996,-0.365196,-0.334864,-0.439359,-0.245835,-0.090236,-0.111279,-0.012356,-0.260578,0.135808,-0.405191,-0.391139,-0.576499,0.527593,-0.227703,-0.101146,-0.169406,0.884081,0.305123,0.196328,-0.030998,-0.012807,'\'(-inf-14.9]\'',0.758844,-0.257595,-0.515799,-0.476888,-0.491464,-0.222351,-0.049259,1.06153,0.037916,-0.010727,0.882695,0.90793,0.816229,-0.116957,0.179108,0.326132,0.273019,0.153283,-0.014112,0.031169,0.090854,0.171217,0.162481,0.689446,-0.103295,-0.286269,0.713061,0.168605,0.303041,0.028301,-0.259348,0.842867,-0.184606,-0.408525,-0.26543,-0.296571,0.652455,-0.339796,-0.439252,-0.317932,-0.536865,-0.510363,-0.502731,-0.34088,-0.572855,-0.472879,-0.525671,-0.568989,0.626417,-0.685961,0.949044,0.964505,0.926594,0.948427,0.984406,1.052489,1.11147,1.145714,1.085167,-0.22096,-0.131885,-0.121912,-0.185035,-0.132377,-0.398536,-0.581663,-0.356952,0.103846,-0.182792,-0.241473,-0.149907,-0.324997,-0.636753,0.336261,-0.24468,0.470924,-0.218516,-0.449085,-0.10379,0.569036,-0.306188,-0.243535,-0.225869,-0.223913,-0.153977,1.159905,-0.143821,-0.263932,-0.263387,-0.258489,-0.242432,-0.281428,-0.581262,-0.541458,'\'(-inf-6.266667]\''
-0.341809,-0.300472,-0.353186,-0.320969,-0.424113,-0.235831,-0.074494,-0.094407,0.013814,-0.239605,0.164197,-0.397716,-0.386687,-0.572226,0.545817,-0.218275,-0.023003,-0.11935,0.936654,0.445077,0.324503,-0.023317,-0.003535,'\'(-inf-14.9]\'',0.695664,-0.275526,-0.519684,-0.412219,-0.525533,-0.283606,-0.040958,1.083699,0.015222,-0.015847,0.903995,0.931122,0.834063,-0.110095,0.182449,0.337823,0.271372,0.157022,-0.006154,0.227507,0.231987,0.234455,0.241165,0.333679,-0.032588,-0.319315,1.199957,0.37983,0.748052,0.039989,-0.130068,1.065821,-0.169272,-0.467836,-0.257096,-0.296107,0.483099,-0.339878,-0.437838,-0.318697,-0.53675,-0.510636,-0.502454,-0.33649,-0.568726,-0.472136,-0.573452,-0.561667,0.549912,-0.677861,0.979563,0.985112,0.96197,0.971017,0.990453,0.994142,1.049491,1.0301,0.916805,-0.340487,-0.350079,-0.303871,-0.40695,-0.433247,-0.429949,-0.637493,-0.249506,0.003206,-0.179728,-0.23863,-0.151408,-0.330312,-0.659241,0.419054,-0.239979,0.509364,-0.217124,-0.44397,-0.100412,0.572093,-0.300825,-0.238819,-0.220694,-0.220196,-0.148452,1.171138,-0.140359,-0.258634,-0.257253,-0.256304,-0.236964,-0.282924,-0.580603,-0.540862,'\'(-inf-6.266667]\''
-0.341371,-0.300742,-0.349438,-0.314006,-0.417952,-0.230053,-0.069683,-0.09009,0.020421,-0.213858,0.155568,-0.394833,-0.380321,-0.562535,0.544738,-0.210218,-0.029003,-0.139234,0.976817,0.364191,0.267412,-0.00986,0.011655,'\'(-inf-14.9]\'',0.683302,-0.16009,-0.571854,-0.461572,-0.574745,-0.287814,-0.030195,1.104883,-0.030167,-0.008808,0.919151,0.948857,0.844961,-0.100714,0.188429,0.347716,0.273304,0.161228,0.010644,0.162061,0.231987,0.234455,0.364438,0.615328,0.007816,-0.104515,1.062157,0.358707,0.44608,-0.08858,-0.095262,1.199594,-0.18129,-0.42181,-0.253375,-0.291115,0.483099,-0.33955,-0.435331,-0.316224,-0.534555,-0.510182,-0.502546,-0.334024,-0.565635,-0.471789,-0.585773,-0.566652,0.650417,-0.756254,0.993435,1.108753,1.093828,1.087196,1.102321,1.084904,1.104584,1.007723,0.940857,0.084499,-0.177029,-0.234852,-0.465071,-0.423218,-0.485805,-0.691753,-0.112846,0.065394,-0.1736,-0.232944,-0.148406,-0.348915,-0.653224,0.519492,-0.235277,0.515771,-0.214342,-0.44056,-0.095345,0.578208,-0.29725,-0.234103,-0.216813,-0.215241,-0.144515,1.176299,-0.138484,-0.254481,-0.254799,-0.255212,-0.232863,-0.291424,-0.581117,-0.539513,'\'(-inf-6.266667]\''
-0.333624,-0.291419,-0.341367,-0.290404,-0.412615,-0.219683,-0.058891,-0.078467,0.037987,-0.189327,0.166525,-0.390149,-0.37081,-0.561245,0.577238,-0.199591,-0.044684,-0.120636,1.03156,0.420067,0.320683,-0.010328,0.011786,'\'(-inf-14.9]\'',0.511615,-0.097329,-0.559644,-0.485398,-0.547489,-0.275189,-0.021326,1.116706,-0.047737,-0.006248,0.928163,0.961817,0.847933,-0.092624,0.198278,0.364083,0.277252,0.1645,0.008434,0.031169,0.090854,0.107979,0.348701,0.659799,0.70478,-0.253223,0.593634,0.340225,0.477867,1.056851,-0.244431,0.512896,-0.048557,-0.276841,-0.230721,-0.279182,0.398413,-0.339181,-0.433985,-0.317166,-0.531897,-0.508999,-0.500239,-0.329652,-0.562158,-0.471166,-0.630403,-0.562368,0.616882,-0.763418,1.107188,1.241225,1.193525,1.203376,1.256518,1.182149,1.156233,1.052477,0.999268,0.217307,-0.259792,-0.397988,-0.618298,-0.543566,-0.475868,-0.687736,-0.078926,-0.040943,-0.167472,-0.227259,-0.139402,-0.310381,-0.576281,0.638931,-0.230576,0.531788,-0.211559,-0.436582,-0.091967,0.590437,-0.292781,-0.229387,-0.211638,-0.211524,-0.139203,1.181022,-0.132195,-0.249871,-0.252345,-0.250842,-0.231495,-0.302498,-0.578811,-0.537868,'\'(-inf-6.266667]\''
-0.319764,-0.279963,-0.338709,-0.288309,-0.407121,-0.212925,-0.050892,-0.071912,0.039848,-0.140905,0.132162,-0.378462,-0.365472,-0.546761,0.5892,-0.182269,-0.22873,-0.100581,1.12883,0.34663,0.205676,0.013651,0.031645,'\'(-inf-14.9]\'',0.750603,-0.111899,-0.565194,-0.490503,-0.552789,-0.291321,-0.013025,1.13789,-0.049201,0.001431,0.941271,0.976142,0.858831,-0.085699,0.205664,0.385397,0.287677,0.16263,0.016833,0.096615,0.231987,0.234455,0.500825,1.430626,0.149229,0.022162,0.694688,0.247814,1.002344,0.27375,-0.189736,0.405878,-0.091299,-0.27486,-0.218608,-0.269622,0.398413,-0.339386,-0.433396,-0.321463,-0.532821,-0.509272,-0.500516,-0.32753,-0.554587,-0.456434,-0.535389,-0.555436,0.546196,-0.755103,1.207068,1.220619,1.257846,1.248556,1.274659,1.201598,1.149347,1.071125,0.999268,-0.181117,-0.48551,-0.636416,-0.782093,-0.724088,-0.410155,-0.650547,-0.181078,-0.064204,-0.150621,-0.210202,-0.118391,-0.258559,-0.518565,0.656576,-0.2247,0.538194,-0.204603,-0.430331,-0.081833,0.593494,-0.288313,-0.223492,-0.203876,-0.20533,-0.130443,1.20332,-0.120536,-0.243541,-0.248665,-0.241011,-0.227394,-0.373171,-0.553854,-0.538706,'\'(-inf-6.266667]\''
-0.315226,-0.274983,-0.341848,-0.308379,-0.417242,-0.223144,-0.056759,-0.075304,0.040528,-0.162962,0.150449,-0.383588,-0.379072,-0.570678,0.562875,-0.203857,-0.039827,-0.129006,0.957065,0.341309,0.308808,0.005689,0.03388,'\'(-inf-14.9]\'',0.816531,-0.260957,-0.662875,-0.624948,-0.626228,-0.225858,-0.00463,1.129515,-0.083608,-0.005608,0.940452,0.970003,0.865766,-0.076791,0.22202,0.403653,0.299466,0.168706,0.025232,0.096615,0.231987,0.297693,-0.013249,0.674622,-0.123497,-0.506576,0.49258,0.028668,0.430187,0.133493,-0.378683,0.432632,-0.134681,-0.368173,-0.211092,-0.261412,0.652455,-0.339775,-0.433312,-0.325996,-0.536808,-0.511819,-0.502915,-0.314171,-0.550847,-0.454609,-0.55306,-0.548737,0.482799,-0.747602,1.273655,1.317765,1.341463,1.309873,1.335129,1.240496,1.176893,1.078584,0.985524,-0.23424,-0.575797,-0.736807,-0.898334,-0.864494,-0.400459,-0.646834,-0.22088,-0.074648,-0.138366,-0.195988,-0.110887,-0.262545,-0.523842,0.587355,-0.219999,0.496551,-0.193472,-0.424079,-0.075077,0.599609,-0.283844,-0.219955,-0.198702,-0.200375,-0.124735,1.208177,-0.112658,-0.238902,-0.244984,-0.238826,-0.223293,-0.381423,-0.554661,-0.539221,'\'(-inf-6.266667]\''
-0.3071,-0.267992,-0.342809,-0.319191,-0.412968,-0.217252,-0.053285,-0.077353,0.046472,-0.19516,0.185667,-0.389434,-0.371311,-0.571935,0.6039,-0.205767,0.161279,-0.177919,0.916795,0.275323,0.305806,0.008562,0.041969,'\'(-inf-14.9]\'',0.60776,-0.291217,-0.63568,-0.601122,-0.599729,-0.140522,0.001493,1.124096,-0.054325,-0.017127,0.9425,0.96591,0.876664,-0.070338,0.235914,0.422359,0.321311,0.171043,0.027443,0.162061,0.37312,0.234455,-0.021117,-0.096205,0.351247,-0.47353,0.455833,-0.417545,0.112322,-0.158709,-0.761549,0.013479,-0.136917,-0.380197,-0.200276,-0.25522,0.737132,-0.339939,-0.43205,-0.329528,-0.534786,-0.512274,-0.503654,-0.31497,-0.547532,-0.45109,-0.567301,-0.549749,0.520907,-0.794984,1.409603,1.488507,1.434728,1.406689,1.43188,1.318292,1.242316,1.138255,1.00614,-0.460014,-0.763896,-0.92504,-1.072696,-1.080118,-0.370808,-0.618974,-0.299307,-0.04474,-0.132238,-0.190303,-0.101882,-0.2466,-0.46942,0.565639,-0.212947,0.528584,-0.183733,-0.418965,-0.064943,0.590437,-0.278481,-0.212881,-0.19094,-0.192942,-0.118325,1.191108,-0.100428,-0.233317,-0.240077,-0.232271,-0.219192,-0.378972,-0.553853,-0.537165,'\'(-inf-6.266667]\''
-0.313273,-0.273389,-0.333969,-0.302724,-0.398936,-0.218062,-0.050082,-0.067987,0.038595,-0.179738,0.16015,-0.371705,-0.37564,-0.570963,0.58454,-0.202768,0.016024,-0.181953,0.907123,0.406763,0.326711,0.019115,0.044434,'\'(-inf-14.9]\'',0.701158,-0.141038,-0.61126,-0.606228,-0.564146,-0.188216,0.006859,1.139367,-0.044808,0.005271,0.940452,0.964546,0.873692,-0.065962,0.23908,0.415524,0.325089,0.171978,0.031421,0.162061,0.231987,0.234455,-0.238811,0.615328,-0.184102,-0.633253,0.005684,0.010186,0.49376,-0.041828,-0.343877,0.405878,-0.124766,-0.308726,-0.191016,-0.246383,0.652455,-0.340718,-0.43099,-0.337062,-0.533168,-0.511273,-0.503008,-0.311623,-0.542269,-0.448806,-0.55657,-0.542272,0.456854,-0.78571,1.406829,1.447294,1.380055,1.342145,1.368387,1.25022,1.180336,1.134526,0.985524,-0.725631,-0.914375,-1.031706,-1.072696,-1.10519,-0.342039,-0.604255,-0.324012,-0.076072,-0.119982,-0.176089,-0.092878,-0.230655,-0.415805,0.550709,-0.202369,0.544601,-0.14756,-0.414418,-0.041297,0.590437,-0.274013,-0.20227,-0.176709,-0.181793,-0.106817,1.202207,-0.069107,-0.228592,-0.23885,-0.224625,-0.220559,-0.372381,-0.550957,-0.535903,'\'(-inf-6.266667]\''
-0.320015,-0.281435,-0.335731,-0.310846,-0.393836,-0.230712,-0.070199,-0.090413,0.008617,-0.223328,0.142935,-0.387646,-0.381087,-0.581462,0.572103,-0.219425,-0.01916,-0.228454,0.761261,0.291819,0.260746,0.016274,0.0445,'\'(-inf-14.9]\'',0.621495,-0.137676,-0.638455,-0.548365,-0.626985,-0.128832,0.010709,1.133948,-0.047005,0.00783,0.934307,0.950903,0.878646,-0.061775,0.246994,0.414984,0.335344,0.174315,0.039379,0.031169,-0.050279,0.171217,-0.259794,0.037207,-0.214405,-0.594699,0.253726,0.023388,0.064642,-0.076892,-0.289181,0.619914,-0.19484,-0.408255,-0.193831,-0.236945,0.737132,-0.341578,-0.430047,-0.341359,-0.533746,-0.513365,-0.504761,-0.305223,-0.538859,-0.446456,-0.523212,-0.533237,0.37844,-0.760301,1.398505,1.347203,1.309302,1.264692,1.253495,1.123802,1.070151,1.052477,0.933985,-1.190459,-1.185236,-1.213665,-1.173086,-1.165364,-0.276247,-0.546544,-0.461456,-0.058507,-0.106195,-0.161875,-0.091377,-0.22534,-0.449689,0.440771,-0.195317,0.554211,-0.13643,-0.409303,-0.031163,0.590437,-0.26865,-0.195196,-0.168947,-0.17436,-0.100468,1.203725,-0.05694,-0.22421,-0.236396,-0.225717,-0.217824,-0.363676,-0.545969,-0.534359,'\'(-inf-6.266667]\''
-0.315662,-0.277191,-0.332784,-0.31644,-0.393605,-0.230764,-0.060936,-0.080879,0.009501,-0.248109,0.163819,-0.371714,-0.3894,-0.584433,0.575439,-0.216327,-0.039351,-0.185586,0.747198,0.188583,0.108035,0.032541,0.054988,'\'(-inf-14.9]\'',0.966242,-0.100691,-0.665095,-0.594315,-0.642884,-0.089086,0.014307,1.115721,-0.118016,0.00719,0.923248,0.931804,0.879636,-0.057022,0.251566,0.410398,0.34273,0.177119,0.047336,0.031169,-0.050279,0.107979,-0.086688,0.022384,-0.355818,-0.644268,1.08053,-0.132391,0.080535,-0.182085,-0.433378,0.423714,-0.160272,-0.306565,-0.186247,-0.228312,0.906488,-0.341885,-0.427305,-0.338239,-0.531955,-0.512728,-0.503838,-0.305277,-0.534532,-0.445143,-0.539438,-0.525603,0.321085,-0.734075,1.320821,1.241225,1.219253,1.109787,1.090227,0.922829,0.87044,0.877191,0.786238,-1.535761,-1.44105,-1.401898,-1.273476,-1.240582,-0.292354,-0.485958,-0.613802,-0.029549,-0.106195,-0.164718,-0.092878,-0.242614,-0.450596,0.34169,-0.190616,0.547805,-0.137821,-0.403052,-0.029474,0.596551,-0.264181,-0.191659,-0.165066,-0.170643,-0.096653,1.208616,-0.0564,-0.219799,-0.233943,-0.223532,-0.213723,-0.35589,-0.541797,-0.533711,'\'(-inf-6.266667]\''
-0.310509,-0.271156,-0.328332,-0.334987,-0.389757,-0.252826,-0.097832,-0.122858,-0.065308,-0.317922,0.090408,-0.387794,-0.397288,-0.590847,0.539947,-0.242398,-0.083202,-0.16241,0.534256,0.233816,0.171682,0.031667,0.056764,'\'(-inf-14.9]\'',0.787688,-0.166815,-0.590169,-0.378182,-0.636828,-0.048873,0.015633,1.103405,-0.192687,0.019349,0.90973,0.905883,0.88459,-0.054913,0.254556,0.410038,0.344037,0.180391,0.045789,0.096615,0.090854,0.107979,-0.008003,0.363327,0.149229,-0.655284,0.703875,-0.235363,-0.094291,-0.263901,-0.552713,0.450469,-0.185774,-0.222393,-0.176737,-0.222134,1.075852,-0.341004,-0.423182,-0.331293,-0.530799,-0.512092,-0.502454,-0.296915,-0.5297,-0.444047,-0.563058,-0.519216,0.284693,-0.71115,1.240361,1.114641,1.13242,1.006516,0.923936,0.773721,0.780914,0.81379,0.731263,-1.881062,-1.568957,-1.383075,-1.210072,-1.175393,-0.357105,-0.521185,-0.469103,-0.074648,-0.109259,-0.168982,-0.09738,-0.238627,-0.462731,0.226323,-0.185915,0.534991,-0.141995,-0.397369,-0.027785,0.593494,-0.257925,-0.186943,-0.162479,-0.165688,-0.092471,1.215869,-0.055066,-0.215303,-0.226582,-0.214793,-0.209622,-0.355362,-0.539266,-0.533804,'\'(-inf-6.266667]\''
-0.307096,-0.268311,-0.313888,-0.289555,-0.377654,-0.230801,-0.066355,-0.085414,-0.007678,-0.241557,0.129381,-0.370786,-0.384661,-0.586077,0.5449,-0.222183,-0.064555,-0.20708,0.632575,0.214658,0.150454,0.037881,0.062781,'\'(-inf-14.9]\'',0.673688,-0.080518,-0.663985,-0.500714,-0.683011,-0.082072,0.017243,1.11375,-0.016258,0.027668,0.903176,0.90179,0.874683,-0.053969,0.263525,0.416873,0.351678,0.182261,0.064356,0.096615,-0.050279,0.107979,-0.257171,-0.377854,-0.345717,-0.412946,0.336406,-0.100707,0.128215,0.051677,-0.398572,0.263187,-0.201053,-0.483103,-0.183746,-0.219638,0.906488,-0.340677,-0.41948,-0.320875,-0.531839,-0.512728,-0.5031,-0.291685,-0.524026,-0.443787,-0.574704,-0.507766,0.19904,-0.65132,1.171,1.082258,1.138852,1.04847,1.011617,0.857999,0.811904,0.824978,0.734699,-1.163898,-1.185236,-1.169744,-1.062128,-1.045016,-0.331141,-0.510675,-0.532041,-0.137785,-0.115387,-0.178931,-0.103383,-0.269189,-0.500446,0.218179,-0.185915,0.496551,-0.154516,-0.391686,-0.032852,0.590437,-0.253456,-0.185764,-0.162479,-0.165688,-0.092257,1.21398,-0.066756,-0.211437,-0.224128,-0.215886,-0.205521,-0.35103,-0.537878,-0.533908,'\'(-inf-6.266667]\''
-0.302755,-0.264067,-0.316738,-0.302413,-0.378422,-0.238399,-0.072647,-0.095317,-0.019673,-0.243332,0.110263,-0.375535,-0.393071,-0.58816,0.525662,-0.227355,-0.017542,-0.181211,0.558542,0.199226,0.112881,0.030949,0.052884,'\'(-inf-14.9]\'',0.844001,-0.1444,-0.631795,-0.468379,-0.653484,-0.075058,0.025102,1.090103,-0.006008,0.023188,0.885972,0.87587,0.87072,-0.04462,0.259305,0.404822,0.347815,0.185065,0.072755,0.031169,-0.050279,0.044741,-0.396181,-0.066558,-0.26491,-0.820514,0.262912,-0.153513,0.001069,-0.100268,-0.448295,0.361287,-0.166914,-0.492831,-0.181196,-0.220975,0.906488,-0.340349,-0.416434,-0.315812,-0.531781,-0.512274,-0.502638,-0.289298,-0.5191,-0.442282,-0.588705,-0.507221,0.224817,-0.657657,1.179323,1.120528,1.090612,1.04847,1.023711,0.883931,0.83945,0.843625,0.745007,-1.150617,-1.147617,-1.138371,-1.051561,-1.045016,-0.310225,-0.475171,-0.577529,-0.104555,-0.106195,-0.16756,-0.098881,-0.251915,-0.464412,0.258897,-0.182389,0.547805,-0.162864,-0.384866,-0.029474,0.590437,-0.250775,-0.183406,-0.158598,-0.16321,-0.08835,1.217859,-0.065612,-0.207055,-0.221674,-0.212608,-0.202786,-0.349142,-0.535255,-0.534354,'\'(-inf-6.266667]\''
-0.295204,-0.255407,-0.317763,-0.320006,-0.387096,-0.241286,-0.082523,-0.109353,-0.012382,-0.280499,0.15103,-0.392564,-0.389632,-0.591922,0.545284,-0.232669,-0.033112,-0.224376,0.482927,0.261487,0.152035,0.039286,0.060348,'\'(-inf-14.9]\'',0.849495,-0.132072,-0.614035,-0.493907,-0.6179,0.052361,0.028479,1.088626,-0.005276,0.038546,0.874912,0.85677,0.871711,-0.041157,0.255787,0.403563,0.338384,0.184598,0.074081,0.096615,-0.050279,0.044741,-0.052591,-0.007264,0.068421,-0.490053,0.575261,-0.018857,-0.062504,0.238686,-0.468184,0.628832,-0.214989,-0.505261,-0.181809,-0.216761,1.075852,-0.339202,-0.4128,-0.312693,-0.531666,-0.512001,-0.502269,-0.286646,-0.515611,-0.440461,-0.622747,-0.507143,0.256049,-0.665009,1.129383,1.070483,1.055235,1.009743,0.954171,0.819101,0.777471,0.81006,0.710647,-1.217021,-1.162665,-1.138371,-1.004008,-1.0049,-0.355422,-0.503529,-0.546354,-0.142057,-0.097003,-0.159032,-0.09738,-0.249257,-0.447705,0.291471,-0.175337,0.576635,-0.154516,-0.379183,-0.01934,0.602666,-0.245412,-0.175153,-0.15213,-0.155778,-0.081483,1.227608,-0.054748,-0.202129,-0.217994,-0.206054,-0.200052,-0.372869,-0.532561,-0.529091,'\'(-inf-6.266667]\''
-0.293604,-0.254843,-0.317026,-0.303865,-0.380309,-0.233636,-0.072761,-0.100033,0.001547,-0.266164,0.16372,-0.384377,-0.384214,-0.592794,0.541847,-0.227852,-0.01899,-0.2068,0.474713,0.167297,0.046194,0.052587,0.07123,'\'(-inf-14.9]\'',0.889326,-0.08388,-0.599605,-0.464976,-0.611086,-0.071551,0.03719,1.094537,0.015222,0.049425,0.871226,0.846539,0.877655,-0.032847,0.258601,0.405182,0.337958,0.188337,0.079386,0.031169,-0.191412,-0.018497,-0.207338,0.126149,0.38155,-0.748914,0.097551,-0.074304,-0.030718,0.145181,-0.522879,0.593159,-0.127851,-0.367092,-0.168585,-0.211374,0.991166,-0.338936,-0.409569,-0.309514,-0.529586,-0.511546,-0.501531,-0.286249,-0.511362,-0.438569,-0.620674,-0.512751,0.346439,-0.699637,1.048924,1.017494,1.071315,0.96779,0.887654,0.767238,0.729265,0.798872,0.710647,-1.124055,-1.064853,-1.044255,-0.866632,-0.85948,-0.364478,-0.490381,-0.575372,-0.166743,-0.093939,-0.157611,-0.100382,-0.238627,-0.456815,0.208678,-0.169461,0.589448,-0.155908,-0.371795,-0.014273,0.614895,-0.24005,-0.171616,-0.146955,-0.150822,-0.077636,1.239583,-0.054748,-0.197976,-0.213087,-0.198407,-0.198685,-0.379624,-0.532577,-0.526528,'\'(-inf-6.266667]\''
-0.292293,-0.252193,-0.304472,-0.297847,-0.378285,-0.220657,-0.043072,-0.060953,0.055765,-0.244507,0.239119,-0.367345,-0.386643,-0.597124,0.496538,-0.22706,0.312312,-0.299895,0.439545,0.244459,0.126587,0.048215,0.068534,'\'(-inf-14.9]\'',0.927784,-0.137676,-0.62347,-0.504118,-0.626228,0.01472,0.039841,1.064979,0.016686,0.014229,0.869178,0.8404,0.881618,-0.028314,0.250159,0.403473,0.31776,0.188804,0.083364,-0.165169,-0.332544,-0.144973,-0.46962,-0.644679,-0.153799,-1.134452,0.786555,0.13164,-0.030718,-0.275589,-0.338904,1.279857,-0.096444,-0.129125,-0.149345,-0.213392,0.906488,-0.337911,-0.406338,-0.305217,-0.525831,-0.509909,-0.499778,-0.288859,-0.507295,-0.437914,-0.636752,-0.506209,0.310433,-0.65456,1.021179,0.999831,1.052019,0.945199,0.872537,0.747789,0.718935,0.787683,0.714083,-1.057651,-1.034758,-1.000334,-0.829646,-0.80432,-0.404786,-0.488888,-0.528512,-0.206619,-0.083216,-0.144818,-0.09738,-0.217367,-0.414192,0.082453,-0.164759,0.583042,-0.151734,-0.367248,-0.009206,0.627125,-0.234687,-0.165722,-0.14178,-0.145867,-0.072508,1.22889,-0.050619,-0.192019,-0.208179,-0.188576,-0.19185,-0.40007,-0.530015,-0.524052,'\'(-inf-6.266667]\''
-0.288228,-0.252438,-0.296849,-0.312117,-0.353692,-0.232633,-0.063963,-0.099536,-0.016405,-0.358486,0.202258,-0.37835,-0.39017,-0.598641,0.565495,-0.228171,0.017546,-0.158348,0.392092,0.213062,0.075442,0.08993,0.109665,'\'(-inf-14.9]\'',0.809664,-0.021119,-0.602935,-0.45987,-0.6179,0.041841,0.051203,1.080743,0.041576,0.08654,0.834769,0.766048,0.906386,-0.017989,0.283399,0.413006,0.369177,0.188804,0.100163,0.096615,0.231987,-0.144973,0.317227,-0.19997,0.603771,-0.374392,1.310198,0.992383,0.350721,2.400979,0.307493,0.771522,-0.207167,-0.319805,-0.141714,-0.211033,0.906488,-0.337399,-0.403932,-0.312398,-0.526524,-0.509727,-0.499778,-0.291066,-0.503973,-0.437282,-0.693755,-0.512931,0.404289,-0.701826,0.960141,0.943898,1.055235,0.987153,0.933007,0.867724,0.846337,0.836166,0.755315,-0.499857,-0.590845,-0.630142,-0.644717,-0.633827,-0.445736,-0.476044,-0.421262,-0.155824,-0.049513,-0.105019,-0.074869,-0.196107,-0.361989,0.064808,-0.150656,0.586245,-0.119734,-0.360997,0.021196,0.633239,-0.230219,-0.153932,-0.123669,-0.131001,-0.059078,1.244137,-0.013865,-0.18675,-0.200818,-0.180929,-0.187748,-0.405404,-0.531549,-0.518244,'\'(-inf-6.266667]\''
-0.283301,-0.246158,-0.3046,-0.285186,-0.359958,-0.211911,-0.040628,-0.068716,0.024976,-0.238083,0.182725,-0.357313,-0.372731,-0.588827,0.603241,-0.198718,-0.234737,-0.102862,0.54775,0.107165,0.01854,0.086089,0.108942,'\'(-inf-14.9]\'',0.856363,-0.049137,-0.637345,-0.527943,-0.634556,0.028982,0.058778,1.124096,0.042308,0.0827,0.874093,0.843128,0.889544,-0.013204,0.279881,0.404103,0.362047,0.195348,0.10591,-0.099723,0.231987,-0.081735,0.018225,0.689446,-0.012386,-0.462515,0.419086,-0.113909,0.191788,0.285438,-0.691937,0.530732,-0.172059,-0.431087,-0.142844,-0.210119,0.737132,-0.336846,-0.401846,-0.312398,-0.529644,-0.511819,-0.502915,-0.290127,-0.498893,-0.438941,-0.760631,-0.520346,0.511044,-0.739238,0.962916,0.955674,1.087396,1.035561,0.990453,0.964969,0.935862,0.921945,0.824034,-0.260802,-0.372651,-0.473281,-0.528475,-0.538551,-0.469457,-0.468999,-0.333227,-0.039518,-0.051045,-0.107862,-0.088376,-0.194778,-0.379905,-0.012556,-0.144779,0.653516,-0.116951,-0.354745,0.029641,0.636297,-0.224856,-0.149216,-0.115907,-0.124807,-0.051203,1.267616,-0.000333,-0.182196,-0.191004,-0.177652,-0.171343,-0.417082,-0.532973,-0.512074,'\'(-inf-6.266667]\''
-0.28176,-0.244613,-0.299443,-0.274466,-0.356883,-0.200938,-0.02139,-0.047168,0.046379,-0.199621,0.190432,-0.336452,-0.369586,-0.576329,0.57202,-0.187902,-0.094785,-0.280796,0.580126,0.097586,0.026128,0.088931,0.113677,'\'(-inf-14.9]\'',0.833013,-0.009912,-0.64789,-0.582402,-0.624714,-0.032039,0.065217,1.100449,0.037916,0.067342,0.863852,0.828121,0.886572,-0.005272,0.280057,0.398257,0.361621,0.196282,0.131771,-0.034277,0.37312,-0.081735,-0.369953,-0.437148,-0.072992,-0.732391,0.262912,-0.333055,-0.332689,-0.076892,-0.672048,0.325614,-0.087444,-0.23113,-0.128216,-0.207678,0.652455,-0.33615,-0.400011,-0.314282,-0.526928,-0.511819,-0.503469,-0.287949,-0.494977,-0.439964,-0.802285,-0.514107,0.463795,-0.688811,0.974014,0.996887,1.138852,1.083969,1.063016,1.023316,0.977182,0.977887,0.848086,0.004814,-0.267316,-0.423085,-0.470355,-0.523508,-0.449102,-0.39358,-0.473613,-0.117847,-0.052577,-0.113547,-0.086875,-0.217367,-0.436714,0.052593,-0.137728,0.711177,-0.11556,-0.347926,0.033019,0.633239,-0.217706,-0.140963,-0.110732,-0.118613,-0.044426,1.263129,0.003352,-0.174377,-0.18487,-0.175467,-0.163141,-0.42149,-0.533622,-0.510405,'\'(-inf-6.266667]\''
-0.271604,-0.233353,-0.296529,-0.295788,-0.362776,-0.206138,-0.033662,-0.060162,0.032221,-0.24787,0.201904,-0.343823,-0.368282,-0.577786,0.582859,-0.196726,-0.036698,-0.274037,0.484189,0.059804,-0.06112,0.084185,0.102136,'\'(-inf-14.9]\'',0.919543,0.06854,-0.622915,-0.526242,-0.615629,0.045348,0.06629,1.073354,0.065003,0.043665,0.854431,0.813797,0.88459,-0.00247,0.280409,0.400146,0.361905,0.200956,0.150117,-0.165169,-0.191412,-0.208211,-0.477488,-0.615031,0.149229,-0.92516,0.115925,-0.623489,-0.82538,-0.182085,-0.826188,-0.022194,-0.166088,-0.392357,-0.123338,-0.203368,0.906488,-0.335208,-0.398076,-0.312398,-0.52404,-0.510091,-0.501254,-0.284636,-0.490994,-0.441976,-0.878082,-0.514325,0.496512,-0.666882,0.968465,1.002775,1.097044,1.080742,1.078133,1.078421,1.046048,1.011453,0.879009,0.09778,-0.124361,-0.285048,-0.412234,-0.468348,-0.470498,-0.34257,-0.448712,-0.193327,-0.054109,-0.11639,-0.083873,-0.249257,-0.49843,0.14353,-0.134202,0.720787,-0.109995,-0.340538,0.034708,0.630182,-0.212343,-0.136247,-0.106851,-0.114896,-0.040641,1.261409,0.003448,-0.16948,-0.187323,-0.176559,-0.165875,-0.422877,-0.532774,-0.507651,'\'(-inf-6.266667]\''
-0.273331,-0.235757,-0.297618,-0.280927,-0.36439,-0.19932,-0.025447,-0.051935,0.029442,-0.230207,0.18451,-0.326002,-0.36302,-0.570536,0.57057,-0.189986,-0.014833,-0.367483,0.492421,0.00659,-0.089188,0.091803,0.111967,'\'(-inf-14.9]\'',0.710772,0.178372,-0.60127,-0.451361,-0.619414,0.014954,0.071151,1.034435,0.096482,0.021908,0.83436,0.793333,0.865766,0.004864,0.279002,0.39493,0.358297,0.203293,0.199186,-0.099723,0.231987,-0.081735,-0.57191,-0.600208,-0.143698,-0.848053,-0.086183,-0.805671,-0.714128,-0.439222,-0.91569,-0.343247,-0.120481,-0.428115,-0.117638,-0.195772,0.82181,-0.335597,-0.398245,-0.315106,-0.524098,-0.512183,-0.5031,-0.286122,-0.485853,-0.444284,-0.911907,-0.504923,0.423445,-0.583499,0.946269,0.988056,1.087396,1.054924,1.053945,1.068697,1.035718,1.015182,0.916805,0.09778,-0.086742,-0.253676,-0.364681,-0.373073,-0.52403,-0.386291,-0.369892,-0.143007,-0.052577,-0.113547,-0.083873,-0.243942,-0.510027,0.127242,-0.131851,0.717583,-0.112778,-0.333718,0.034708,0.630182,-0.207875,-0.133889,-0.104264,-0.112419,-0.036582,1.263804,0.003892,-0.164583,-0.182416,-0.173282,-0.157672,-0.425225,-0.530742,-0.504946,'\'(-inf-6.266667]\''
-0.270673,-0.233598,-0.292749,-0.276161,-0.357319,-0.191452,-0.012335,-0.035353,0.066524,-0.200649,0.225348,-0.324741,-0.360162,-0.565658,0.552084,-0.182968,0.027441,-0.258357,0.504084,-0.022146,-0.070939,0.081812,0.106443,'\'(-inf-14.9]\'',0.757471,0.009141,-0.589614,-0.408815,-0.622443,0.048387,0.071845,1.015715,0.109659,0.01039,0.825758,0.781737,0.861803,0.006753,0.277771,0.401045,0.354746,0.207967,0.189682,-0.034277,0.37312,-0.018497,-0.663709,-0.89668,-0.396222,-0.578176,-0.444465,-0.697418,-0.777701,-0.345718,-0.860994,-0.111375,-0.148484,-0.427395,-0.118343,-0.197463,0.737132,-0.334655,-0.39604,-0.318167,-0.521556,-0.511273,-0.501808,-0.28392,-0.481448,-0.443589,-0.941107,-0.497025,0.37041,-0.512138,0.976788,0.955674,1.08418,1.012971,0.987429,0.96821,0.939306,0.936863,0.851522,-0.340487,-0.402747,-0.498379,-0.533759,-0.523508,-0.519863,-0.389742,-0.305386,-0.151077,-0.051045,-0.113547,-0.086875,-0.277161,-0.555944,0.102812,-0.122449,0.72399,-0.105821,-0.326898,0.044842,0.624067,-0.199831,-0.125636,-0.096502,-0.103747,-0.028584,1.251188,0.016472,-0.157423,-0.177509,-0.171097,-0.152204,-0.429536,-0.523764,-0.499694,'\'(-inf-6.266667]\''
-0.26522,-0.22668,-0.289611,-0.286066,-0.354564,-0.195316,-0.020731,-0.045554,0.037282,-0.263799,0.221867,-0.319043,-0.359828,-0.568207,0.578016,-0.187952,0.010982,-0.233763,0.439439,-0.018953,-0.156856,0.086776,0.100755,'\'(-inf-14.9]\'',0.853616,0.145871,-0.535224,-0.323723,-0.586102,0.069896,0.07074,0.964973,0.10307,-0.008168,0.796265,0.75036,0.836044,0.008893,0.274957,0.399876,0.351905,0.210304,0.190566,-0.099723,0.37312,-0.081735,-0.679446,-0.718797,-0.396222,-0.859068,-0.141303,-0.776627,-0.888953,-0.369094,-0.885856,-0.254066,-0.118873,-0.238246,-0.111397,-0.190317,0.906488,-0.334389,-0.394223,-0.319992,-0.520285,-0.511546,-0.5019,-0.285928,-0.476573,-0.443522,-0.975998,-0.497306,0.387073,-0.487626,0.937946,0.911516,1.048803,0.977471,0.939053,0.935795,0.935862,0.929404,0.84465,-0.367049,-0.372651,-0.416811,-0.470355,-0.463334,-0.545987,-0.435857,-0.110297,-0.227032,-0.04645,-0.109283,-0.088376,-0.271846,-0.496547,0.127242,-0.115397,0.72399,-0.098865,-0.318942,0.051598,0.630182,-0.192681,-0.118562,-0.090034,-0.096314,-0.024097,1.258575,0.023873,-0.15433,-0.173828,-0.170005,-0.148103,-0.426316,-0.512523,-0.497771,'\'(-inf-6.266667]\''
-0.275284,-0.238431,-0.28913,-0.267571,-0.350574,-0.186918,-0.016249,-0.039347,0.048346,-0.266057,0.242185,-0.311785,-0.348338,-0.561442,0.57695,-0.179863,-0.012659,-0.133133,0.462783,-0.106757,-0.288755,0.094832,0.100492,'\'(-inf-14.9]\'',0.989592,0.161561,-0.494709,-0.270966,-0.554303,0.150557,0.064144,0.917187,0.080376,-0.033764,0.774555,0.714889,0.835053,0.005368,0.268098,0.402574,0.34131,0.211239,0.1678,-0.099723,0.231987,-0.144973,-0.826324,-0.703973,-0.305313,-1.173006,-0.223984,-0.80039,-0.888953,-0.404158,-0.91569,-0.254066,-0.158145,-0.448246,-0.11424,-0.18403,0.737132,-0.333242,-0.391278,-0.324348,-0.519591,-0.511728,-0.502269,-0.285379,-0.473763,-0.444405,-0.98815,-0.520112,0.65516,-0.625474,0.932397,0.879134,0.99413,0.93229,0.890678,0.971452,1.032275,0.992805,0.916805,-0.55298,-0.27484,-0.228578,-0.369964,-0.348,-0.613943,-0.451492,0.069106,-0.284947,-0.026534,-0.086541,-0.070366,-0.145614,-0.209615,0.205964,-0.102469,0.7336,-0.068256,-0.310985,0.071866,0.636297,-0.183743,-0.104414,-0.075803,-0.083926,-0.011979,1.259284,0.049032,-0.146425,-0.175055,-0.173282,-0.14947,-0.431733,-0.510047,-0.496515,'\'(-inf-6.266667]\''
-0.275825,-0.241056,-0.289867,-0.301717,-0.347888,-0.186419,-0.009726,-0.029208,0.071376,-0.259487,0.276245,-0.311827,-0.353241,-0.565627,0.564045,-0.183749,0.12129,-0.153853,0.410441,-0.18924,-0.389741,0.091772,0.091352,'\'(-inf-14.9]\'',0.934652,0.29605,-0.445868,-0.207998,-0.515691,0.196147,0.061524,0.879253,0.087697,-0.057441,0.757761,0.687604,0.834063,0.005179,0.266163,0.393671,0.339037,0.208902,0.163379,-0.099723,0.231987,-0.144973,-0.839438,-0.941151,-0.305313,-1.13996,-0.17805,-1.045939,-0.92074,-0.462598,-1.099664,-0.691055,-0.146413,-0.318634,-0.107367,-0.179352,0.82181,-0.33232,-0.389158,-0.328586,-0.517916,-0.511091,-0.501347,-0.286478,-0.471485,-0.444988,-1.029689,-0.53206,0.823008,-0.694525,0.951818,0.902685,0.965186,0.912927,0.884631,0.994142,1.080481,1.048748,0.995832,-0.672507,-0.27484,-0.184657,-0.327695,-0.267768,-0.614504,-0.54083,0.026167,-0.22086,-0.003555,-0.060956,-0.043352,-0.075189,0.009316,0.2874,-0.091891,0.762431,-0.033474,-0.304734,0.093823,0.636297,-0.179275,-0.091445,-0.061573,-0.072777,-0.000716,1.265018,0.078861,-0.141242,-0.167694,-0.164543,-0.141267,-0.425822,-0.506133,-0.494706,'\'(-inf-6.266667]\''
-0.288792,-0.25867,-0.298482,-0.309536,-0.344907,-0.200727,-0.0301,-0.052649,0.024611,-0.326639,0.246992,-0.314422,-0.361459,-0.577225,0.561853,-0.198267,0.035054,-0.248047,0.291551,-0.291412,-0.483302,0.094988,0.091747,'\'(-inf-14.9]\'',1.026676,0.343121,-0.449198,-0.213104,-0.517962,0.342271,0.056916,0.830975,0.072323,-0.097756,0.744653,0.671234,0.826137,0.003668,0.263877,0.383508,0.337105,0.206565,0.164705,-0.296061,0.090854,-0.208211,-1.091229,-0.422324,-0.426525,-1.409837,-0.82112,-1.180595,-0.92074,-0.731424,-1.159332,-0.833746,-0.121704,-0.19303,-0.099168,-0.176583,0.82181,-0.332381,-0.388367,-0.336238,-0.517454,-0.511455,-0.501531,-0.2889,-0.468087,-0.444275,-1.006926,-0.538518,0.936715,-0.727249,0.926848,0.908572,0.904081,0.861292,0.821138,0.935795,1.021945,1.037559,1.030192,-0.831877,-0.342555,-0.234852,-0.295993,-0.172493,-0.634618,-0.628477,0.155964,-0.21279,0.014828,-0.039635,-0.01934,0.057687,0.084444,0.314545,-0.081313,0.762431,-0.000083,-0.296778,0.11578,0.648526,-0.174806,-0.080834,-0.047342,-0.061627,0.009845,1.279557,0.102527,-0.135686,-0.164013,-0.163451,-0.133065,-0.424648,-0.503766,-0.493991,'\'(-inf-6.266667]\''
-0.288579,-0.259307,-0.299892,-0.330993,-0.347183,-0.229587,-0.062526,-0.091657,-0.014073,-0.435622,0.262304,-0.344885,-0.385826,-0.5969,0.55873,-0.224661,-0.051244,-0.310079,0.098254,-0.429238,-0.63668,0.09733,0.084185,'\'(-inf-14.9]\'',1.157158,0.398037,-0.370387,-0.065044,-0.476322,0.442804,0.052024,0.737373,0.075984,-0.122713,0.683619,0.588015,0.799387,0.00477,0.260008,0.376854,0.333725,0.202358,0.166252,-0.230615,-0.050279,-0.334687,-0.747639,-0.19997,-0.234607,-0.90313,-0.775187,-1.13835,-1.000206,-0.637919,-1.074803,-0.869418,-0.252984,-0.49193,-0.106908,-0.173719,0.991166,-0.331931,-0.387812,-0.338063,-0.514623,-0.510545,-0.500424,-0.286853,-0.465134,-0.446226,-1.037567,-0.532154,0.872503,-0.668453,0.843614,0.887965,0.868705,0.819338,0.748575,0.835309,0.908316,0.951781,0.98896,-0.752192,-0.350079,-0.253676,-0.259007,-0.082232,-0.654573,-0.632195,0.192433,-0.196175,0.025551,-0.028264,-0.014838,-0.048614,-0.037307,0.201892,-0.077787,0.762431,0.006874,-0.288821,0.119158,0.648526,-0.169443,-0.076118,-0.042168,-0.057911,0.012196,1.274734,0.102781,-0.132535,-0.164013,-0.160173,-0.137166,-0.447736,-0.50305,-0.492679,'\'(-inf-6.266667]\''
-0.280306,-0.251972,-0.305496,-0.349664,-0.353949,-0.245465,-0.079639,-0.108177,-0.039597,-0.46815,0.243738,-0.355516,-0.399888,-0.610645,0.533405,-0.241702,-0.057807,-0.396639,-0.031481,-0.428173,-0.658106,0.099578,0.082047,'\'(-inf-14.9]\'',1.184628,0.510111,-0.385373,-0.10759,-0.477836,0.48138,0.05032,0.696977,0.079644,-0.153428,0.670102,0.575054,0.785516,0.005651,0.258953,0.374335,0.324322,0.19675,0.170231,-0.099723,-0.050279,-0.271449,-1.209257,-1.074563,-0.37602,-1.327221,-1.014041,-1.349575,-1.111459,-0.81324,-1.26375,-1.047781,-0.200007,-0.140249,-0.098057,-0.17912,1.075852,-0.331398,-0.386264,-0.339358,-0.513698,-0.513183,-0.503192,-0.28394,-0.460958,-0.450635,-1.124029,-0.52167,0.758731,-0.577374,0.704892,0.855583,0.765792,0.712841,0.669964,0.741306,0.801574,0.858543,0.923677,-0.433453,-0.192077,-0.134461,-0.126914,0.073218,-0.634939,-0.585908,0.109496,-0.211366,0.01636,-0.041056,-0.026844,-0.141627,-0.204136,0.064808,-0.071911,0.788058,0.018004,-0.28257,0.124225,0.657698,-0.164974,-0.070223,-0.036993,-0.052955,0.013936,1.25871,0.107514,-0.130817,-0.159106,-0.159081,-0.131697,-0.456929,-0.501462,-0.49171,'\'(6.266667-10.533333]\''
-0.290682,-0.269046,-0.319236,-0.361362,-0.372029,-0.253026,-0.084333,-0.104375,-0.023293,-0.465329,0.269539,-0.358808,-0.409715,-0.621932,0.497826,-0.255237,0.064588,-0.316349,-0.136166,-0.557485,-0.764267,0.093739,0.072151,'\'(-inf-14.9]\'',1.195616,0.582959,-0.350962,-0.065044,-0.449823,0.410072,0.046848,0.627514,0.071591,-0.201422,0.643476,0.533445,0.781553,0.006627,0.246642,0.35572,0.316823,0.200956,0.171557,-0.230615,-0.050279,-0.334687,-1.65776,-1.385859,-1.365912,-1.641159,-0.968108,-1.547599,-1.254498,-0.895057,-1.477558,-1.190472,-0.23928,-0.353492,-0.098297,-0.172274,1.329885,-0.330886,-0.383588,-0.33771,-0.516991,-0.520641,-0.510943,-0.290592,-0.458222,-0.452205,-1.125519,-0.524209,0.792893,-0.586076,0.593914,0.649515,0.598557,0.577298,0.546002,0.731581,0.805017,0.854814,0.930549,-0.446734,0.086309,0.122791,0.07915,0.283827,-0.642953,-0.587794,0.134397,-0.231779,0.025551,-0.032528,-0.026844,-0.108408,-0.284071,0.014589,-0.066034,0.810481,-0.001474,-0.27575,0.124225,0.669927,-0.156037,-0.064328,-0.031818,-0.046761,0.021017,1.297099,0.104624,-0.123342,-0.152972,-0.141603,-0.126229,-0.47526,-0.503678,-0.488983,'\'(6.266667-10.533333]\''
-0.289379,-0.269316,-0.309884,-0.350925,-0.35908,-0.269514,-0.10648,-0.12687,-0.055123,-0.509541,0.249212,-0.367648,-0.420337,-0.629178,0.478475,-0.270546,-0.052762,-0.212005,-0.250362,-0.614424,-0.836768,0.095769,0.066069,'\'(-inf-14.9]\'',1.353568,0.693912,-0.301567,0.025153,-0.422567,0.616983,0.036653,0.548692,0.067199,-0.228938,0.59555,0.468644,0.759757,0.001496,0.228351,0.34214,0.295972,0.196282,0.173325,-0.296061,-0.191412,-0.397925,-1.219748,-1.252446,-0.072992,-1.415344,-1.069161,-1.370698,-1.190925,-0.708048,-1.258777,-1.163717,-0.232328,-0.361868,-0.095349,-0.17511,1.329885,-0.32978,-0.380762,-0.33147,-0.518551,-0.522824,-0.512881,-0.290779,-0.455227,-0.455103,-1.166192,-0.495569,0.463139,-0.373334,0.4108,0.469941,0.508508,0.464346,0.434133,0.657027,0.722378,0.776495,0.799982,-0.06159,0.409838,0.386317,0.316916,0.424233,-0.645277,-0.619118,0.192237,-0.237001,0.013296,-0.049585,-0.041852,-0.230655,-0.433184,-0.017985,-0.064859,0.823295,-0.023735,-0.269499,0.117469,0.688271,-0.149781,-0.063149,-0.031818,-0.046761,0.021963,1.322804,0.092425,-0.120106,-0.154199,-0.147065,-0.126229,-0.490323,-0.50471,-0.486075,'\'(6.266667-10.533333]\''
-0.286955,-0.26836,-0.291981,-0.36118,-0.354522,-0.282149,-0.115828,-0.128031,-0.05361,-0.500978,0.245703,-0.369258,-0.435433,-0.641073,0.428475,-0.286774,0.015139,-0.187922,-0.368896,-0.646353,-0.897424,0.102575,0.062682,'\'(-inf-14.9]\'',1.290387,0.91918,-0.200556,0.254901,-0.386983,0.685252,0.031382,0.487605,0.058414,-0.259654,0.565648,0.429763,0.743905,0.000142,0.219382,0.333866,0.28691,0.19675,0.174652,-0.361507,-0.191412,-0.461163,-1.335152,-0.881856,-0.497231,-1.35476,-1.418257,-1.21756,-1.079673,-0.626231,-1.19911,-0.878336,-0.310885,-0.445319,-0.098257,-0.186512,1.329885,-0.328531,-0.377834,-0.323877,-0.516125,-0.522733,-0.512881,-0.291708,-0.452084,-0.458083,-1.210003,-0.487764,0.385729,-0.305273,0.374732,0.44639,0.49886,0.461119,0.473438,0.754272,0.811904,0.81379,0.806854,0.283711,0.733368,0.63102,0.438441,0.499451,-0.546468,-0.551267,-0.087553,-0.226082,0.005636,-0.058113,-0.059861,-0.27849,-0.45547,-0.038344,-0.064859,0.813685,-0.04043,-0.263247,0.110713,0.694385,-0.147099,-0.063149,-0.033112,-0.046761,0.02236,1.320813,0.084166,-0.117099,-0.152972,-0.151434,-0.122128,-0.49922,-0.50453,-0.478579,'\'(6.266667-10.533333]\''
-0.280807,-0.264214,-0.297073,-0.326431,-0.346305,-0.276409,-0.114637,-0.132235,-0.053819,-0.460726,0.215241,-0.369134,-0.42577,-0.629287,0.453364,-0.277645,-0.022535,-0.256351,-0.322457,-0.653803,-0.884533,0.112255,0.077708,'\'(-inf-14.9]\'',1.099471,0.774605,-0.162261,0.324676,-0.365784,0.538661,0.024502,0.443267,0.034988,-0.284611,0.546396,0.414756,0.719137,-0.003887,0.205137,0.327391,0.267452,0.187869,0.173989,-0.296061,-0.332544,-0.397925,-1.125326,-1.089387,-0.295212,-1.321714,-0.79356,-1.204358,-1.000206,-0.567791,-1.144415,-1.021027,-0.258404,-0.572003,-0.107187,-0.189512,0.991166,-0.327629,-0.376067,-0.322523,-0.514392,-0.521187,-0.51122,-0.296546,-0.450264,-0.46033,-1.268228,-0.482,0.332352,-0.254023,0.316468,0.3463,0.415243,0.393348,0.425063,0.731581,0.787801,0.787683,0.755315,0.350116,0.838703,0.718862,0.512413,0.529538,-0.507922,-0.553981,-0.228134,-0.243647,0.005636,-0.058113,-0.067365,-0.282476,-0.4231,-0.050559,-0.061333,0.829701,-0.043213,-0.256996,0.119158,0.7005,-0.145312,-0.060792,-0.029231,-0.043045,0.025748,1.330495,0.090932,-0.115352,-0.145611,-0.14051,-0.115292,-0.497731,-0.502407,-0.476164,'\'(6.266667-10.533333]\''
-0.280574,-0.264729,-0.293166,-0.31168,-0.346016,-0.253969,-0.088114,-0.103385,0.003884,-0.428465,0.288874,-0.360896,-0.40803,-0.627903,0.495345,-0.262939,0.100479,-0.181453,-0.239837,-0.658592,-0.92256,0.100639,0.055712,'\'(-inf-14.9]\'',1.403014,0.845211,-0.13673,0.292341,-0.316573,0.443973,0.02144,0.409768,0.004973,-0.311487,0.537384,0.401114,0.717155,-0.0048,0.201619,0.321726,0.264725,0.179924,0.176862,-0.296061,-0.191412,-0.334687,-1.13844,-0.778091,-0.567938,-1.51999,-0.453651,-1.006335,-1.0161,-0.45091,-1.010163,-0.673219,-0.225498,-0.5997,-0.112391,-0.19509,0.82181,-0.326462,-0.374283,-0.323288,-0.514276,-0.522278,-0.51242,-0.300991,-0.449253,-0.462335,-1.315292,-0.483316,0.34721,-0.251741,0.2804,0.302143,0.354138,0.361076,0.391805,0.731581,0.79813,0.787683,0.727827,0.376677,0.936514,0.819253,0.581101,0.55461,-0.493898,-0.542996,-0.278916,-0.260737,0.010232,-0.05527,-0.068866,-0.273175,-0.409083,-0.102135,-0.055456,0.845718,-0.033474,-0.251881,0.125914,0.712729,-0.140843,-0.054897,-0.021469,-0.03809,0.033501,1.332721,0.099064,-0.108163,-0.144384,-0.147065,-0.109824,-0.504349,-0.499197,-0.472779,'\'(6.266667-10.533333]\''
-0.272255,-0.25499,-0.29291,-0.3198,-0.34425,-0.235735,-0.062178,-0.076944,0.045096,-0.379498,0.321655,-0.347905,-0.397669,-0.61235,0.490821,-0.243172,0.19393,-0.153704,-0.125036,-0.633581,-0.901792,0.105479,0.062255,'\'(-inf-14.9]\'',1.137929,0.84297,0.019226,0.659938,-0.267361,0.357935,0.023871,0.387106,-0.019186,-0.323006,0.526734,0.376557,0.727063,-0.000928,0.198805,0.319747,0.263162,0.177119,0.190787,-0.099723,0.090854,-0.208211,-1.033527,-0.496443,-0.275011,-1.299683,-0.894614,-1.077623,-0.984313,-0.45091,-1.074803,-0.815909,-0.267855,-0.606726,-0.123484,-0.198527,0.82181,-0.324844,-0.372786,-0.3237,-0.512081,-0.521096,-0.51122,-0.302652,-0.447326,-0.465242,-1.386816,-0.483083,0.347295,-0.235332,0.313694,0.358075,0.389515,0.406256,0.461344,0.809377,0.87044,0.843625,0.762187,0.522766,1.026801,0.875723,0.596952,0.544581,-0.43596,-0.527885,-0.424203,-0.28922,0.007168,-0.059534,-0.071867,-0.295764,-0.44421,-0.191715,-0.050755,0.842515,-0.030691,-0.245061,0.130981,0.718844,-0.136374,-0.05136,-0.017588,-0.034373,0.036676,1.315349,0.101669,-0.103953,-0.140704,-0.148157,-0.104356,-0.499873,-0.498903,-0.466494,'\'(6.266667-10.533333]\''
-0.27599,-0.259381,-0.285415,-0.296241,-0.341558,-0.229491,-0.066616,-0.079019,0.037005,-0.345573,0.281998,-0.340412,-0.38177,-0.600585,0.549372,-0.231622,0.108395,-0.176166,-0.064071,-0.693714,-0.927609,0.099953,0.05992,'\'(-inf-14.9]\'',1.129688,0.776846,-0.06125,0.414873,-0.268118,0.309539,0.022608,0.355084,-0.055057,-0.342203,0.514445,0.364961,0.714183,-0.000141,0.199157,0.318128,0.260094,0.171511,0.198965,-0.099723,0.37312,-0.144973,-0.962711,-0.941151,-0.335616,-1.123437,-0.609826,-1.05386,-0.952527,-0.369094,-1.010163,-0.931845,-0.091277,-0.191724,-0.106116,-0.199904,0.737132,-0.32384,-0.372079,-0.323994,-0.510983,-0.520823,-0.51122,-0.306578,-0.448132,-0.468415,-1.417786,-0.481572,0.342906,-0.204317,0.291498,0.340412,0.392731,0.39012,0.446227,0.799652,0.866996,0.839896,0.738135,0.562609,1.064421,0.919644,0.633938,0.549596,-0.421214,-0.546876,-0.421066,-0.263585,0.002572,-0.066641,-0.076369,-0.293107,-0.403032,-0.197144,-0.048405,0.868142,-0.032083,-0.239378,0.129292,0.731073,-0.131012,-0.046644,-0.015001,-0.031895,0.039637,1.346687,0.093728,-0.099743,-0.137023,-0.147065,-0.098887,-0.499385,-0.496315,-0.460516,'\'(6.266667-10.533333]\''
-0.272977,-0.257001,-0.287753,-0.303945,-0.346121,-0.229165,-0.064652,-0.082534,0.036419,-0.374453,0.303222,-0.34592,-0.382976,-0.597257,0.547996,-0.228892,0.092747,-0.174951,-0.06135,-0.717128,-0.951508,0.099828,0.057158,'\'(-inf-14.9]\'',1.162652,0.719689,-0.021289,0.435296,-0.222692,0.371963,0.022892,0.348188,-0.10191,-0.354362,0.518951,0.354047,0.740933,0.000583,0.198278,0.313722,0.258759,0.168706,0.192113,-0.099723,0.231987,-0.081735,-0.999431,-0.73362,-0.355818,-1.178514,-0.756813,-1.130429,-0.904847,-0.462598,-1.08972,-1.00319,-0.170054,-0.480626,-0.10454,-0.200463,0.737132,-0.322775,-0.372264,-0.328703,-0.510925,-0.520914,-0.511497,-0.312582,-0.448572,-0.472268,-1.48393,-0.474429,0.28641,-0.129166,0.247107,0.243266,0.31233,0.290077,0.285983,0.644061,0.739594,0.746659,0.655672,0.071218,0.823655,0.787881,0.586385,0.50948,-0.443653,-0.556915,-0.356756,-0.283048,0.005636,-0.062377,-0.073368,-0.297093,-0.394023,-0.209359,-0.043703,0.906582,-0.022344,-0.231422,0.13267,0.728016,-0.127437,-0.040749,-0.009826,-0.028179,0.044032,1.337613,0.100272,-0.095619,-0.137023,-0.147065,-0.09752,-0.490865,-0.493534,-0.456109,'\'(6.266667-10.533333]\''
-0.268121,-0.252389,-0.287016,-0.296158,-0.345343,-0.210364,-0.036865,-0.050172,0.085891,-0.294114,0.326094,-0.328037,-0.373305,-0.584732,0.56743,-0.206814,0.13546,-0.187768,0.063994,-0.699035,-0.946342,0.115439,0.071756,'\'(-inf-14.9]\'',1.206604,0.699515,-0.000754,0.459121,-0.205278,0.338764,0.024028,0.334886,-0.149495,-0.357561,0.512397,0.341087,0.743905,0.002566,0.194233,0.313272,0.255436,0.164967,0.186809,-0.034277,0.231987,-0.081735,-1.088607,-0.970798,-0.305313,-1.200545,-0.931361,-1.05122,-0.984313,-0.509351,-0.920662,-0.9586,-0.205713,-0.515529,-0.112617,-0.196222,0.737132,-0.322181,-0.372281,-0.333,-0.509943,-0.520459,-0.510851,-0.309881,-0.448206,-0.476005,-1.560756,-0.476143,0.311895,-0.115639,0.188843,0.199108,0.276953,0.244896,0.22249,0.550057,0.653512,0.694446,0.607568,0.071218,0.763463,0.762784,0.62337,0.544581,-0.475547,-0.581843,-0.273622,-0.321975,0.0087,-0.059534,-0.070366,-0.306394,-0.388342,-0.194429,-0.039002,0.909786,-0.020952,-0.22517,0.136048,0.731073,-0.12118,-0.034854,-0.004651,-0.023224,0.050534,1.350162,0.10348,-0.089118,-0.133343,-0.14488,-0.093419,-0.511063,-0.499181,-0.448611,'\'(6.266667-10.533333]\''
-0.266089,-0.256167,-0.29323,-0.294311,-0.350632,-0.212773,-0.045839,-0.057964,0.07789,-0.302733,0.319086,-0.336535,-0.369492,-0.587525,0.59869,-0.209004,0.070809,-0.258445,0.031049,-0.768746,-1.002627,0.11519,0.067548,'\'(-inf-14.9]\'',1.199736,0.749949,0.077502,0.624199,-0.171966,0.330581,0.024849,0.31124,-0.194151,-0.376759,0.507892,0.327445,0.752822,0.004896,0.190364,0.308056,0.251288,0.164032,0.19786,-0.034277,0.231987,-0.081735,-0.920746,-0.703973,-0.416424,-0.99676,-0.747626,-1.006335,-0.777701,-0.322342,-1.044969,-0.842664,-0.191469,-0.490579,-0.121156,-0.19434,0.737132,-0.320481,-0.371406,-0.332824,-0.509192,-0.520005,-0.510113,-0.30938,-0.447341,-0.480439,-1.626502,-0.476392,0.30814,-0.078884,0.122256,0.134344,0.202984,0.177125,0.149927,0.462537,0.612192,0.672069,0.600696,0.071218,0.740891,0.838077,0.718477,0.6549,-0.47731,-0.616776,-0.280289,-0.365175,0.014828,-0.053849,-0.070366,-0.274504,-0.342257,-0.195787,-0.036652,0.912989,-0.023735,-0.219487,0.136048,0.731073,-0.117605,-0.031317,-0.003358,-0.020746,0.054075,1.359236,0.101796,-0.084736,-0.130889,-0.14488,-0.08795,-0.514743,-0.500118,-0.438785,'\'(6.266667-10.533333]\''
-0.263589,-0.252095,-0.28596,-0.300237,-0.346374,-0.215823,-0.042724,-0.05701,0.083044,-0.296733,0.323299,-0.33695,-0.378175,-0.586183,0.555289,-0.21365,0.223799,-0.236901,-0.019853,-0.7448,-0.997048,0.117032,0.066562,'\'(-inf-14.9]\'',1.181881,0.75219,0.121902,0.520387,-0.065214,0.436491,0.022924,0.260498,-0.241736,-0.413874,0.492326,0.30016,0.754804,0.006218,0.187198,0.304369,0.247141,0.1645,0.205375,-0.034277,0.231987,-0.018497,-0.857798,-0.718797,-0.456827,-0.941683,-0.573079,-1.024817,-0.777701,-0.415846,-0.975357,-0.9586,-0.167807,-0.314896,-0.123729,-0.193399,0.737132,-0.318515,-0.370497,-0.336827,-0.50613,-0.51864,-0.508636,-0.312535,-0.446567,-0.482073,-1.664512,-0.47714,0.309005,-0.044293,0.011278,0.025422,0.064695,0.038355,0.016894,0.3815,0.574316,0.645962,0.586952,0.018095,0.853751,1.020035,0.892839,0.835423,-0.512009,-0.628069,-0.16951,-0.354256,0.022488,-0.046742,-0.068866,-0.275833,-0.367905,-0.216146,-0.0296,0.941819,-0.015387,-0.213804,0.146182,0.737188,-0.113137,-0.024243,0.004404,-0.013313,0.058256,1.365848,0.11158,-0.082732,-0.129662,-0.143788,-0.086583,-0.522748,-0.504713,-0.42993,'\'(6.266667-10.533333]\''
-0.250233,-0.240688,-0.283301,-0.323464,-0.347057,-0.226312,-0.062797,-0.081663,0.038969,-0.314517,0.262129,-0.339018,-0.379268,-0.586798,0.582226,-0.219372,0.050953,-0.186707,-0.079699,-0.733625,-1.017041,0.115876,0.056567,'\'(14.9-27.8]\'',1.199736,0.788054,0.218473,0.598672,0.031695,0.489563,0.023871,0.239807,-0.27834,-0.409395,0.474303,0.272193,0.751831,0.008484,0.18667,0.301491,0.247624,0.16263,0.20847,0.031169,0.231987,-0.081735,-0.920746,-0.422324,-0.275011,-1.079375,-0.912987,-0.821513,-0.92074,-0.193773,-0.806299,-0.664301,-0.257632,-0.617579,-0.129077,-0.187275,0.991166,-0.316589,-0.36937,-0.338122,-0.502086,-0.516457,-0.50633,-0.312624,-0.445987,-0.483214,-1.734417,-0.475122,0.284437,0.023089,-0.094151,-0.083499,-0.092891,-0.126232,-0.137304,0.242115,0.460687,0.582561,0.521669,-0.154556,0.816131,1.051408,1.003796,0.930698,-0.551517,-0.643842,-0.076181,-0.275928,0.020956,-0.049585,-0.070366,-0.309052,-0.467,-0.259578,-0.024899,0.932209,-0.007039,-0.206984,0.151249,0.740245,-0.10688,-0.018348,0.008285,-0.008358,0.063018,1.341931,0.116218,-0.076775,-0.125982,-0.136141,-0.085216,-0.530822,-0.497726,-0.422197,'\'(6.266667-10.533333]\''
-0.242577,-0.2361,-0.260722,-0.288573,-0.331511,-0.238292,-0.085363,-0.110495,0.00671,-0.401409,0.272155,-0.360107,-0.380851,-0.592061,0.585143,-0.23148,-0.041002,-0.201431,-0.186392,-0.808125,-1.069179,0.134517,0.0734,'\'(14.9-27.8]\'',1.096724,0.802623,0.311714,0.682062,0.121791,0.406565,0.024975,0.209756,-0.307623,-0.396596,0.442352,0.225808,0.741924,0.011506,0.179987,0.291059,0.244556,0.158424,0.218858,-0.034277,0.231987,-0.081735,-0.666332,-0.274088,0.179532,-1.040822,-0.591452,-0.779268,-0.698234,0.075053,-0.856022,-0.7624,-0.202144,-0.424828,-0.132975,-0.193944,0.737132,-0.313845,-0.367855,-0.335355,-0.503415,-0.516185,-0.506145,-0.318473,-0.44439,-0.483826,-1.773072,-0.453648,0.110255,0.251974,-0.205129,-0.242466,-0.179724,-0.200458,-0.206843,0.258323,0.440028,0.541536,0.477002,0.071218,1.154708,1.264739,1.157024,1.06609,-0.536772,-0.669375,-0.111866,-0.226557,0.01636,-0.05527,-0.079371,-0.322339,-0.490429,-0.327441,-0.023723,0.938616,-0.013996,-0.200165,0.146182,0.749417,-0.103305,-0.017169,0.008285,-0.008358,0.065613,1.350263,0.109928,-0.072221,-0.127208,-0.135048,-0.089317,-0.53753,-0.497949,-0.416006,'\'(6.266667-10.533333]\''
-0.234842,-0.226631,-0.25896,-0.283955,-0.331448,-0.222122,-0.061324,-0.081199,0.041535,-0.319256,0.270328,-0.334646,-0.372706,-0.57374,0.564818,-0.212213,0.030802,-0.258011,-0.093993,-0.750653,-1.05121,0.132831,0.066003,'\'(14.9-27.8]\'',0.930531,0.944957,0.379424,0.751837,0.183116,0.421528,0.023334,0.174286,-0.337638,-0.431792,0.437846,0.223762,0.733998,0.012136,0.180515,0.288361,0.246573,0.160293,0.21908,0.031169,0.231987,-0.018497,-0.472243,-0.437148,0.442156,-0.803991,-0.444465,-0.597086,-0.666448,0.63608,-0.806299,-0.682137,-0.198487,-0.447525,-0.139882,-0.191845,0.737132,-0.310813,-0.364692,-0.330469,-0.504512,-0.51673,-0.506606,-0.323153,-0.442987,-0.48423,-1.815559,-0.45639,0.140794,0.285287,-0.196806,-0.230691,-0.16686,-0.181094,-0.164515,0.368534,0.54677,0.575102,0.511361,0.217307,1.38795,1.440423,1.188726,1.101191,-0.49494,-0.647215,-0.173039,-0.105979,0.020956,-0.049585,-0.073368,-0.303737,-0.484547,-0.260935,-0.020197,0.941819,-0.015387,-0.192777,0.14956,0.755532,-0.100624,-0.013632,0.012166,-0.00588,0.070466,1.359641,0.112629,-0.067524,-0.124755,-0.142695,-0.081115,-0.537791,-0.495562,-0.41069,'\'(6.266667-10.533333]\''
-0.232436,-0.225576,-0.256078,-0.276546,-0.334281,-0.202836,-0.039716,-0.05923,0.071933,-0.278227,0.291325,-0.320224,-0.356356,-0.56093,0.626116,-0.189553,0.006652,-0.242952,0.017234,-0.676153,-1.008663,0.145226,0.078858,'\'(14.9-27.8]\'',1.115953,0.774605,0.387194,0.66164,0.233842,0.362143,0.025038,0.166896,-0.353743,-0.426032,0.428425,0.21012,0.731026,0.014308,0.180515,0.285933,0.245919,0.159826,0.224826,-0.034277,0.37312,-0.018497,-0.34897,-0.481619,0.553266,-0.633253,-0.370971,-0.766066,-0.761807,0.098429,-0.74166,-0.905091,-0.134184,-0.311849,-0.145365,-0.1864,0.491238,-0.308458,-0.364036,-0.334001,-0.50197,-0.51573,-0.505591,-0.326182,-0.442252,-0.484665,-1.840414,-0.46044,0.182759,0.303364,-0.219002,-0.174758,-0.102539,-0.100414,-0.061717,0.488469,0.615636,0.597479,0.518233,0.775102,1.726527,1.616107,1.262698,1.151336,-0.452227,-0.596073,-0.278916,-0.057083,0.022488,-0.049585,-0.071867,-0.323668,-0.487202,-0.232433,-0.014321,0.95143,-0.008431,-0.185957,0.156316,0.770818,-0.096155,-0.008916,0.017341,-0.000925,0.075106,1.356436,0.118092,-0.063085,-0.121074,-0.132864,-0.078381,-0.545164,-0.492237,-0.407173,'\'(6.266667-10.533333]\''
-0.226535,-0.220964,-0.254765,-0.264229,-0.327623,-0.185086,-0.020302,-0.040319,0.104166,-0.240136,0.317641,-0.30819,-0.340868,-0.55412,0.634453,-0.17747,0.125126,-0.220891,0.058927,-0.731496,-1.036499,0.152626,0.08813,'\'(14.9-27.8]\'',0.956628,0.79702,0.350564,0.585057,0.217943,0.309539,0.029773,0.169359,-0.376438,-0.437551,0.438666,0.214895,0.748859,0.018872,0.181922,0.275501,0.250692,0.164967,0.230131,0.162061,0.655386,0.044741,-0.868289,-0.689149,-0.365919,-0.919653,-0.747626,-0.839995,-0.841274,-0.158709,-0.841105,-0.735646,-0.082121,-0.295889,-0.143156,-0.182937,0.491238,-0.307004,-0.364742,-0.338887,-0.503415,-0.521096,-0.510943,-0.329825,-0.438633,-0.4873,-1.900825,-0.460401,0.182434,0.365748,-0.288363,-0.251298,-0.195805,-0.200458,-0.161491,0.433364,0.594976,0.59002,0.504489,0.668855,1.786719,1.735322,1.384223,1.256641,-0.444214,-0.58937,-0.214606,-0.082718,0.024019,-0.048163,-0.068866,-0.310381,-0.442596,-0.221575,-0.010795,0.932209,-0.000083,-0.179705,0.158005,0.77999,-0.091687,-0.0042,0.022516,0.002791,0.080295,1.366421,0.11895,-0.057443,-0.116167,-0.131771,-0.072912,-0.536321,-0.492167,-0.402956,'\'(6.266667-10.533333]\''
-0.217964,-0.211348,-0.246598,-0.280416,-0.324749,-0.177429,-0.005791,-0.025399,0.12695,-0.174715,0.308445,-0.297954,-0.339964,-0.542855,0.612957,-0.16433,0.056757,-0.251262,0.105526,-0.681474,-1.038065,0.161306,0.086453,'\'(14.9-27.8]\'',1.122821,0.760035,0.524836,0.721204,0.395105,0.305564,0.033876,0.17133,-0.395472,-0.436271,0.440714,0.216941,0.750841,0.022838,0.179811,0.265788,0.251317,0.170109,0.233226,0.096615,0.514253,0.107979,-0.566665,-0.674326,0.260339,-0.78196,-0.499585,-0.834714,-0.730021,0.016612,-0.870939,-0.8605,-0.066285,-0.258096,-0.140973,-0.183689,0.409273,-0.305611,-0.364928,-0.342419,-0.502606,-0.522551,-0.512512,-0.332566,-0.438308,-0.488142,-1.943037,-0.454637,0.135086,0.469236,-0.263393,-0.298399,-0.234397,-0.239184,-0.19475,0.40419,0.563986,0.571372,0.477002,0.403239,1.651288,1.622382,1.310251,1.171394,-0.467213,-0.616789,-0.110885,-0.027176,0.030147,-0.041056,-0.062862,-0.281148,-0.419167,-0.224289,-0.007269,0.96104,0.004091,-0.175159,0.163072,0.786105,-0.088112,0.000516,0.026397,0.006508,0.082859,1.376204,0.121873,-0.055668,-0.11494,-0.131771,-0.068811,-0.550519,-0.491981,-0.396686,'\'(6.266667-10.533333]\''
-0.21121,-0.203547,-0.242306,-0.260974,-0.320913,-0.176111,-0.012295,-0.03342,0.109822,-0.204412,0.30113,-0.294913,-0.33132,-0.540444,0.661236,-0.156915,-0.053805,-0.264754,0.114593,-0.700632,-1.074357,0.171922,0.0879,'\'(14.9-27.8]\'',1.261544,0.783571,0.699107,0.973076,0.520784,0.311877,0.03577,0.153102,-0.442324,-0.449709,0.437027,0.208073,0.754804,0.025892,0.180515,0.259313,0.253248,0.174315,0.235215,0.031169,0.514253,0.044741,-0.747639,-0.807738,0.028017,-0.99676,-0.481212,-0.832074,-0.777701,-0.170397,-0.781438,-0.842664,-0.101283,-0.315597,-0.146769,-0.176078,0.409273,-0.304853,-0.365802,-0.348717,-0.501104,-0.521915,-0.511958,-0.333959,-0.439665,-0.490307,-1.995294,-0.459731,0.176843,0.46384,-0.28004,-0.286624,-0.224749,-0.23273,-0.200797,0.336119,0.519223,0.548995,0.449514,0.456362,1.538429,1.578461,1.310251,1.161365,-0.519863,-0.655766,-0.021478,-0.041892,0.037807,-0.033949,-0.053858,-0.263874,-0.37093,-0.205287,-0.002568,0.977057,0.011047,-0.170044,0.171517,0.792219,-0.084536,0.006411,0.031571,0.011463,0.086277,1.365139,0.13172,-0.053491,-0.110033,-0.119755,-0.066077,-0.544965,-0.486845,-0.390787,'\'(6.266667-10.533333]\''
-0.212685,-0.206171,-0.237021,-0.236015,-0.312291,-0.154927,0.014521,-0.004123,0.156107,-0.147954,0.338005,-0.281649,-0.316279,-0.528577,0.662721,-0.136516,-0.027905,-0.253246,0.205054,-0.711275,-1.064054,0.17517,0.097566,'\'(14.9-27.8]\'',1.151664,0.809348,0.619187,0.772259,0.5011,0.4241,0.038452,0.141771,-0.465019,-0.458668,0.434569,0.195113,0.767683,0.029291,0.17348,0.242496,0.247936,0.17338,0.247372,0.031169,0.514253,0.044741,-0.763376,-0.689149,-0.032588,-0.941683,-0.646573,-0.747584,-0.666448,-0.053516,-0.761549,-0.744564,-0.104141,-0.331557,-0.157257,-0.171138,0.327309,-0.30301,-0.365718,-0.352543,-0.499197,-0.521642,-0.511774,-0.336209,-0.440128,-0.489678,-2.00094,-0.45445,0.138506,0.544748,-0.421537,-0.427928,-0.369471,-0.390863,-0.373135,0.128663,0.374605,0.493053,0.377359,0.376677,1.440618,1.63493,1.500464,1.3118,-0.592226,-0.665213,0.101261,-0.058982,0.036275,-0.033949,-0.052357,-0.263874,-0.391637,-0.171356,0.002133,0.996277,0.018004,-0.164361,0.174895,0.798334,-0.080068,0.011127,0.036746,0.01518,0.092657,1.372392,0.136485,-0.047334,-0.11126,-0.130679,-0.063343,-0.54088,-0.486506,-0.383655,'\'(6.266667-10.533333]\''
-0.206364,-0.199425,-0.23305,-0.26606,-0.314606,-0.16805,0.011153,-0.00762,0.156413,-0.167291,0.35233,-0.288177,-0.338111,-0.533943,0.600074,-0.147853,0.009195,-0.418276,0.09621,-0.675089,-1.038345,0.176731,0.101281,'\'(14.9-27.8]\'',1.148917,0.818314,0.599761,0.799488,0.462487,0.25787,0.042366,0.126499,-0.487713,-0.451629,0.419004,0.183517,0.746878,0.03417,0.170666,0.234942,0.244073,0.178989,0.26196,0.031169,0.514253,0.044741,-0.535191,-0.867033,0.522963,-0.908637,-0.297477,-0.784548,-0.745914,-0.03014,-0.841105,-0.699973,-0.129663,-0.388247,-0.168775,-0.167992,0.491238,-0.30088,-0.364894,-0.353544,-0.497868,-0.521278,-0.511405,-0.338713,-0.439218,-0.489224,-2.022102,-0.452207,0.125434,0.58541,-0.407664,-0.445591,-0.395199,-0.413453,-0.41244,0.050867,0.288522,0.448299,0.312076,0.137622,1.222423,1.446697,1.410641,1.191452,-0.622758,-0.661753,0.151651,-0.067052,0.037807,-0.033949,-0.053858,-0.275833,-0.405385,-0.127923,0.005659,0.983463,0.019395,-0.159246,0.179962,0.804449,-0.076493,0.014664,0.041921,0.020135,0.095252,1.37617,0.140615,-0.045472,-0.106352,-0.124125,-0.059241,-0.539541,-0.479556,-0.376243,'\'(6.266667-10.533333]\''
-0.212831,-0.208526,-0.222641,-0.240218,-0.304421,-0.16053,0.010013,-0.012082,0.141648,-0.174572,0.332905,-0.282615,-0.322688,-0.534557,0.657594,-0.144396,-0.007146,-0.321543,0.081453,-0.723514,-1.064902,0.173234,0.097796,'\'(14.9-27.8]\'',1.137929,0.865385,0.558136,0.607181,0.491257,0.303694,0.043502,0.114183,-0.533833,-0.449709,0.409992,0.171921,0.741924,0.036091,0.169787,0.225769,0.243562,0.186467,0.250024,-0.034277,0.37312,-0.018497,-0.640104,-0.659502,-0.083093,-0.666299,-0.646573,-0.681576,-0.698234,0.063365,-0.731715,-0.646464,-0.126149,-0.338358,-0.176496,-0.166918,0.327309,-0.297951,-0.362959,-0.351778,-0.495442,-0.520096,-0.510113,-0.337281,-0.437671,-0.489889,-2.017651,-0.451778,0.126907,0.598039,-0.42986,-0.486805,-0.465952,-0.494133,-0.500121,-0.020446,0.229986,0.437111,0.301768,-0.141275,1.117088,1.390227,1.437059,1.216525,-0.637664,-0.697747,-0.03834,0.083908,0.042403,-0.028264,-0.050856,-0.247929,-0.38683,-0.153711,0.009185,0.98026,0.019395,-0.154131,0.185029,0.810563,-0.073811,0.017022,0.045802,0.022613,0.098426,1.371717,0.141822,-0.041606,-0.108806,-0.133956,-0.060608,-0.542027,-0.476765,-0.372974,'\'(6.266667-10.533333]\''
-0.22107,-0.219051,-0.217228,-0.23259,-0.295527,-0.144453,0.030933,0.014167,0.188672,-0.127936,0.378168,-0.277698,-0.311826,-0.521061,0.639719,-0.131326,0.129508,-0.180585,0.128052,-0.694246,-1.013221,0.158403,0.094771,'\'(14.9-27.8]\'',1.039037,0.582959,0.558691,0.46763,0.554097,0.120397,0.049373,0.11911,-0.517728,-0.439471,0.406305,0.161689,0.747868,0.041631,0.172953,0.226668,0.248646,0.190206,0.249803,0.031169,0.514253,0.044741,-0.48798,-0.600208,0.341146,-0.682822,-0.508772,-0.634051,-0.87306,-0.03014,-0.542768,-0.655382,-0.047896,-0.313047,-0.170632,-0.166377,0.327309,-0.294735,-0.360687,-0.35219,-0.493767,-0.51864,-0.508544,-0.339219,-0.436027,-0.492355,-2.035905,-0.456436,0.163875,0.550449,-0.463153,-0.46031,-0.482032,-0.468316,-0.463839,0.050867,0.288522,0.463217,0.377359,0.177465,1.372902,1.572186,1.53745,1.387018,-0.60593,-0.711925,-0.417929,0.192144,0.050062,-0.021157,-0.050856,-0.247929,-0.394023,-0.206645,0.016237,0.98987,0.034699,-0.14788,0.190096,0.819735,-0.066661,0.025275,0.05227,0.028807,0.105294,1.381601,0.143474,-0.034074,-0.103899,-0.123032,-0.057874,-0.544155,-0.478239,-0.368825,'\'(6.266667-10.533333]\''
-0.217498,-0.211053,-0.214474,-0.229366,-0.295208,-0.135385,0.037694,0.022297,0.194332,-0.109214,0.374328,-0.268117,-0.300917,-0.514135,0.659603,-0.123063,0.130507,-0.235609,0.145956,-0.642096,-0.999127,0.17136,0.102925,'\'(14.9-27.8]\'',0.985471,0.911335,0.49875,0.627603,0.401162,0.047686,0.053949,0.125022,-0.527245,-0.435631,0.409173,0.165782,0.748859,0.045817,0.173832,0.22415,0.250521,0.195815,0.252677,0.031169,0.514253,0.107979,-0.566665,-0.837385,-0.062891,-0.682822,-0.269917,-0.671015,-0.586982,0.039989,-0.726743,-0.664301,-0.106671,-0.386585,-0.180171,-0.163061,0.327309,-0.292277,-0.360233,-0.355074,-0.490242,-0.517185,-0.507068,-0.339147,-0.435286,-0.48969,-2.029023,-0.448382,0.098723,0.609345,-0.465928,-0.363164,-0.395199,-0.371499,-0.348947,0.193493,0.384935,0.504242,0.41859,0.695417,1.711479,1.754145,1.600854,1.452207,-0.516577,-0.685038,-0.665172,0.297056,0.04853,-0.024,-0.053858,-0.251915,-0.439268,-0.267722,0.020938,0.996277,0.043047,-0.142197,0.191785,0.831964,-0.061299,0.03117,0.057445,0.033762,0.10914,1.390507,0.144617,-0.030121,-0.101445,-0.119755,-0.05514,-0.54881,-0.472755,-0.36326,'\'(6.266667-10.533333]\''
-0.157043,-0.137114,-0.203809,-0.199862,-0.287019,-0.131792,0.046822,0.029788,0.195764,-0.086288,0.360486,-0.256015,-0.302733,-0.517269,0.637134,-0.124266,0.239513,-0.276389,0.107019,-0.640499,-0.997447,0.174889,0.106904,'\'(14.9-27.8]\'',0.809664,0.727534,0.639722,0.950952,0.449617,-0.06103,0.060861,0.142264,-0.530905,-0.420273,0.414088,0.167828,0.757776,0.051609,0.176822,0.216236,0.252879,0.203761,0.260855,0.031169,0.514253,0.107979,-0.532568,-0.214794,0.038118,-0.61673,-0.73844,-0.517877,-0.666448,0.27375,-0.577574,-0.548365,-0.063263,-0.272046,-0.182778,-0.15526,0.327309,-0.290393,-0.360536,-0.357782,-0.486776,-0.515457,-0.505315,-0.339703,-0.434843,-0.489292,-2.210178,-0.438412,0.022536,0.676377,-0.513094,-0.36022,-0.366255,-0.365045,-0.339876,0.206459,0.350502,0.459488,0.367051,0.961033,1.869482,1.798066,1.627273,1.462236,-0.522347,-0.683444,-0.617723,0.321267,0.050062,-0.022578,-0.053858,-0.26786,-0.470698,-0.270436,0.023289,0.99948,0.04583,-0.13765,0.195163,0.831964,-0.057724,0.034707,0.061326,0.03624,0.112559,1.372021,0.149636,-0.026226,-0.098991,-0.11757,-0.052406,-0.55192,-0.468977,-0.357776,'\'(6.266667-10.533333]\''
-0.204291,-0.201952,-0.206147,-0.19504,-0.277566,-0.122406,0.057346,0.042016,0.215403,-0.053544,0.370049,-0.251203,-0.294791,-0.501029,0.672181,-0.102827,0.060586,-0.271783,0.211099,-0.677749,-0.99648,0.17008,0.109468,'\'(14.9-27.8]\'',0.960748,0.604253,0.470445,0.585057,0.381477,-0.030169,0.069951,0.169359,-0.525781,-0.398516,0.422281,0.17806,0.762729,0.058944,0.18755,0.218934,0.264185,0.211706,0.265939,0.162061,0.796519,0.234455,-0.577156,-0.585384,0.300743,-0.479038,-1.133468,-0.515236,-0.459836,0.285438,-0.542768,-0.726728,-0.115303,-0.396169,-0.196005,-0.154368,0.245344,-0.289266,-0.361478,-0.365081,-0.487527,-0.516003,-0.505868,-0.340883,-0.435831,-0.488682,-2.079232,-0.438732,0.031601,0.621076,-0.485349,-0.483861,-0.437008,-0.436044,-0.403369,0.125422,0.291966,0.433381,0.318947,0.549328,1.606144,1.628656,1.53745,1.341888,-0.477871,-0.674012,-0.653996,0.346902,0.053126,-0.019735,-0.049355,-0.262545,-0.481858,-0.271793,0.029165,0.99948,0.050004,-0.131399,0.198541,0.831964,-0.052361,0.039423,0.065207,0.041195,0.11732,1.382883,0.149001,-0.020728,-0.096538,-0.11757,-0.046938,-0.553519,-0.473534,-0.358489,'\'(6.266667-10.533333]\''
-0.196566,-0.191698,-0.203136,-0.197514,-0.281015,-0.110833,0.065081,0.043678,0.220043,-0.062396,0.384067,-0.249243,-0.280007,-0.49248,0.67833,-0.096211,0.134155,-0.23368,0.224843,-0.618149,-0.946764,0.171891,0.116044,'\'(14.9-27.8]\'',1.183255,0.526922,0.383864,0.419979,0.336808,-0.064537,0.078094,0.19744,-0.593131,-0.36652,0.428015,0.180789,0.772637,0.065271,0.196167,0.216236,0.278474,0.217315,0.26616,0.227507,0.937652,0.234455,-0.577156,-0.659502,0.219935,-0.605715,-0.802747,-0.591806,-0.443942,0.121805,-0.537796,-0.878336,-0.030772,-0.236224,-0.194906,-0.15166,0.245344,-0.288631,-0.362252,-0.369908,-0.488163,-0.517913,-0.507806,-0.343173,-0.435342,-0.486656,-2.088946,-0.433692,0.001571,0.615862,-0.482575,-0.504468,-0.45952,-0.458634,-0.436628,-0.004238,0.174894,0.358791,0.222741,0.389958,1.297663,1.409051,1.426492,1.196467,-0.445496,-0.715943,-0.83634,0.262877,0.057722,-0.015471,-0.041852,-0.269189,-0.448983,-0.277223,0.032691,1.037921,0.055569,-0.125716,0.205297,0.831964,-0.04968,0.04296,0.070381,0.044911,0.120281,1.377486,0.155354,-0.018465,-0.092857,-0.116478,-0.044203,-0.573903,-0.473947,-0.352229,'\'(6.266667-10.533333]\''
-0.200918,-0.198714,-0.207556,-0.209699,-0.287067,-0.113183,0.067016,0.043413,0.22176,-0.049406,0.377785,-0.246268,-0.286362,-0.492565,0.656319,-0.100634,0.26981,-0.304445,0.171967,-0.62826,-0.939295,0.176262,0.124822,'\'(14.9-27.8]\'',0.907182,0.623305,0.342239,0.464227,0.260341,-0.004919,0.076706,0.174778,-0.577026,-0.390837,0.424329,0.173285,0.774618,0.065334,0.193529,0.212459,0.274923,0.221521,0.267265,0.031169,0.655386,0.044741,-0.910255,-1.133857,-0.275011,-1.013283,-0.545519,-0.834714,-1.000206,-0.041828,-0.85105,-0.699973,-0.055275,-0.366993,-0.200028,-0.142363,0.409273,-0.287627,-0.362723,-0.373027,-0.486314,-0.517549,-0.507437,-0.346001,-0.433663,-0.488281,-2.102747,-0.427103,-0.038416,0.621392,-0.471477,-0.507411,-0.453088,-0.465088,-0.454768,-0.082034,0.078481,0.310308,0.140277,0.25715,1.086993,1.208269,1.336669,1.056061,-0.443252,-0.753005,-0.792813,0.200689,0.062318,-0.012629,-0.035849,-0.262545,-0.4391,-0.29351,0.035042,1.037921,0.052786,-0.121738,0.205297,0.841136,-0.046105,0.046497,0.072969,0.047389,0.12431,1.376001,0.15275,-0.012651,-0.089177,-0.107739,-0.042836,-0.576821,-0.475104,-0.343277,'\'(6.266667-10.533333]\''
-0.188314,-0.181738,-0.196602,-0.199803,-0.263969,-0.106536,0.071648,0.049297,0.224271,-0.038585,0.374361,-0.237473,-0.278049,-0.487271,0.703799,-0.089914,0.231203,-0.303341,0.214157,-0.62826,-0.945078,0.175825,0.122587,'\'(14.9-27.8]\'',1.030797,0.571751,0.286183,0.586759,0.129362,0.012616,0.086048,0.169359,-0.585079,-0.381878,0.414907,0.160325,0.770655,0.074998,0.198454,0.218215,0.280604,0.233206,0.274117,0.358399,1.36105,0.360931,-0.45126,-0.748444,-0.153799,-0.440484,-0.242357,-0.707979,-0.857167,-0.193773,-0.592491,-0.699973,-0.047861,-0.29245,-0.203024,-0.140055,0.327309,-0.285743,-0.36279,-0.378031,-0.48279,-0.515548,-0.505315,-0.353105,-0.432084,-0.484578,-2.115539,-0.432617,0.003099,0.5258,-0.501996,-0.516243,-0.478816,-0.490906,-0.48198,-0.101483,0.075038,0.265554,0.136841,0.283711,1.124612,1.271013,1.331386,1.106206,-0.491895,-0.798623,-0.630076,0.271896,0.073041,0.000164,-0.031346,-0.242614,-0.441689,-0.334228,0.040918,1.037921,0.055569,-0.116055,0.210364,0.850308,-0.039849,0.052391,0.078144,0.053583,0.12956,1.402786,0.15275,-0.007697,-0.084269,-0.107739,-0.036001,-0.572434,-0.471666,-0.336827,'\'(6.266667-10.533333]\''
-0.188696,-0.180953,-0.190901,-0.196754,-0.259485,-0.115481,0.06167,0.036408,0.1989,-0.035736,0.330199,-0.23569,-0.285672,-0.485884,0.662948,-0.092484,0.002163,-0.295388,0.174954,-0.560677,-0.908792,0.197057,0.143662,'\'(14.9-27.8]\'',1.048652,0.568389,0.334469,0.491456,0.237627,-0.039521,0.094601,0.198425,-0.577758,-0.341564,0.41245,0.152822,0.775609,0.081671,0.206895,0.228737,0.286854,0.243956,0.276991,0.227507,0.796519,0.234455,-0.446015,-0.778091,0.280541,-0.484545,-0.527145,-0.686857,-0.682341,0.004924,-0.67702,-0.726728,-0.058004,-0.319384,-0.212432,-0.138913,0.163379,-0.281995,-0.358483,-0.371497,-0.481634,-0.515912,-0.505776,-0.350139,-0.429025,-0.485954,-2.143397,-0.430927,-0.006321,0.502,-0.490898,-0.516243,-0.449872,-0.458634,-0.445698,-0.078793,0.099141,0.254365,0.160893,0.389958,1.147184,1.289836,1.2944,1.121249,-0.499508,-0.819109,-0.624194,0.308449,0.073041,0.001585,-0.035849,-0.210723,-0.452781,-0.398019,0.045619,1.021904,0.059743,-0.108098,0.213742,0.85948,-0.034486,0.055928,0.083318,0.0573,0.135665,1.402516,0.151924,0.000179,-0.080589,-0.104461,-0.033267,-0.571534,-0.475116,-0.334735,'\'(6.266667-10.533333]\''
-0.190779,-0.18581,-0.184944,-0.17893,-0.259182,-0.110041,0.060897,0.034304,0.206047,-0.055809,0.356155,-0.245585,-0.274487,-0.481309,0.657393,-0.095011,0.129114,-0.307127,0.136142,-0.606442,-0.93316,0.201647,0.149416,'\'(14.9-27.8]\'',0.849495,0.748828,0.356669,0.542511,0.245199,-0.043496,0.099999,0.186602,-0.635592,-0.337084,0.402619,0.140543,0.769665,0.087809,0.215689,0.230086,0.295915,0.253771,0.280969,0.162061,0.937652,0.171217,-0.393558,-0.615031,0.139128,-0.523099,-0.251544,-0.639331,-0.666448,0.110117,-0.691937,-0.628628,-0.014866,-0.186374,-0.214029,-0.136418,0.245344,-0.28011,-0.357557,-0.370202,-0.478746,-0.514911,-0.504853,-0.347334,-0.426658,-0.483592,-2.115375,-0.428738,-0.019176,0.488494,-0.4798,-0.483861,-0.414495,-0.41668,-0.391275,-0.07231,0.071595,0.217071,0.11279,0.575889,1.132136,1.214543,1.220428,1.030988,-0.478272,-0.848139,-0.701641,0.351649,0.065382,-0.008364,-0.035849,-0.234641,-0.482026,-0.414306,0.046795,1.005887,0.059743,-0.103552,0.208675,0.868652,-0.030017,0.058286,0.084612,0.058538,0.136337,1.411489,0.144077,0.002728,-0.079362,-0.104461,-0.029165,-0.558785,-0.473742,-0.328217,'\'(6.266667-10.533333]\''
-0.185346,-0.180756,-0.176841,-0.188345,-0.244529,-0.103875,0.07506,0.051357,0.235659,-0.058623,0.40726,-0.245289,-0.276226,-0.47858,0.655751,-0.090109,0.256444,-0.303049,0.142756,-0.547374,-0.875966,0.20121,0.155235,'\'(14.9-27.8]\'',0.951134,0.533646,0.303944,0.408066,0.233085,-0.005854,0.109846,0.195469,-0.661214,-0.322366,0.4018,0.139861,0.768674,0.097064,0.225713,0.242137,0.305602,0.266391,0.301083,0.227507,0.937652,0.234455,-0.461752,-0.555737,0.108825,-0.457007,-0.609826,-0.523157,-0.698234,0.051677,-0.468184,-0.575119,-0.039475,-0.252377,-0.2144,-0.136538,0.245344,-0.278165,-0.357625,-0.372321,-0.476839,-0.514456,-0.504392,-0.350262,-0.425474,-0.482267,-2.125871,-0.429338,-0.014955,0.461982,-0.474251,-0.49858,-0.424143,-0.429589,-0.41244,-0.114449,0.019945,0.157399,0.064686,0.456362,1.019277,1.107878,1.125321,0.950756,-0.44798,-0.84537,-0.726541,0.366365,0.06385,-0.012629,-0.035849,-0.263874,-0.522497,-0.399376,0.049145,0.99948,0.062525,-0.098437,0.208675,0.874767,-0.027336,0.060644,0.085906,0.059777,0.139511,1.420327,0.142584,0.006566,-0.076908,-0.101184,-0.027798,-0.549901,-0.463396,-0.321882,'\'(6.266667-10.533333]\''
-0.181696,-0.177616,-0.175176,-0.178422,-0.247607,-0.106543,0.067137,0.039372,0.230492,-0.082848,0.415544,-0.25791,-0.273753,-0.478508,0.676312,-0.095143,0.314852,-0.306429,0.087302,-0.508527,-0.831908,0.208141,0.168025,'\'(14.9-27.8]\'',0.791808,0.543733,0.292844,0.374029,0.233085,-0.051678,0.114454,0.204337,-0.697818,-0.307648,0.4018,0.143272,0.76372,0.101093,0.227824,0.23818,0.312278,0.275271,0.29401,0.292953,0.937652,0.234455,-0.341102,-0.674326,0.199733,-0.445992,-0.214797,-0.3753,-0.650555,0.285438,-0.358793,-0.477019,-0.024635,-0.198895,-0.213717,-0.133939,0.245344,-0.276198,-0.357002,-0.373734,-0.475799,-0.514365,-0.504484,-0.350531,-0.423856,-0.479792,-2.120253,-0.42401,-0.051956,0.474509,-0.482575,-0.504468,-0.430576,-0.436044,-0.42151,-0.133898,-0.024818,0.038055,-0.0487,0.456362,0.996705,1.045133,0.972094,0.800321,-0.462485,-0.884257,-0.73458,0.489791,0.045467,-0.033949,-0.037349,-0.274504,-0.517691,-0.372231,0.052671,1.037921,0.06809,-0.095027,0.213742,0.890053,-0.022867,0.064181,0.09108,0.064732,0.142899,1.427006,0.144554,0.00983,-0.074455,-0.100092,-0.023697,-0.559314,-0.459015,-0.320367,'\'(6.266667-10.533333]\''
-0.185504,-0.182719,-0.165664,-0.161091,-0.240422,-0.094226,0.084455,0.058032,0.241531,-0.035673,0.400955,-0.235293,-0.266704,-0.464883,0.677373,-0.079092,0.304441,-0.222551,0.159362,-0.54897,-0.851217,0.197182,0.158096,'\'(14.9-27.8]\'',0.724507,0.455195,0.301724,0.425084,0.222485,-0.06103,0.122313,0.229461,-0.675124,-0.296769,0.414088,0.160325,0.768674,0.107326,0.237145,0.251399,0.32134,0.287423,0.296884,0.358399,1.219918,0.360931,-0.22832,-0.318559,0.391651,-0.418453,-0.26073,-0.319853,-0.539302,0.343878,-0.398572,-0.325411,-0.049759,-0.283021,-0.223228,-0.128934,0.163379,-0.27415,-0.355908,-0.373027,-0.473604,-0.513183,-0.503284,-0.35334,-0.421932,-0.476856,-2.08507,-0.42003,-0.07888,0.477813,-0.465928,-0.510355,-0.453088,-0.461861,-0.445698,-0.231143,-0.135003,-0.032806,-0.138035,0.270431,0.725844,0.806705,0.840002,0.639857,-0.525312,-0.866333,-0.669093,0.553878,0.04853,-0.031107,-0.035849,-0.269189,-0.53433,-0.379017,0.055022,1.028311,0.066699,-0.090481,0.208675,0.902282,-0.019292,0.06536,0.092374,0.065971,0.144975,1.444075,0.134579,0.014212,-0.070774,-0.103369,-0.018229,-0.564367,-0.455597,-0.31834,'\'(6.266667-10.533333]\''
-0.192584,-0.18998,-0.163069,-0.152703,-0.235301,-0.076162,0.10407,0.080208,0.259912,0.023085,0.390579,-0.206191,-0.250798,-0.451438,0.686998,-0.059551,0.278165,-0.120702,0.250356,-0.461698,-0.801015,0.206705,0.16694,'\'(14.9-27.8]\'',1.011568,0.452953,0.294509,0.312763,0.262612,-0.01053,0.131308,0.255079,-0.68098,-0.267973,0.417365,0.170557,0.761739,0.11466,0.246466,0.259134,0.330487,0.298173,0.297105,0.292953,1.078785,0.360931,-0.099802,-0.644679,0.886597,-0.291776,-0.269917,-0.224802,-0.396262,0.495823,-0.26432,-0.441347,0.019756,-0.221308,-0.227981,-0.127349,0.081414,-0.272327,-0.355151,-0.376971,-0.471582,-0.512364,-0.502362,-0.355248,-0.419568,-0.472422,-2.035689,-0.4164,-0.099132,0.472092,-0.493672,-0.480917,-0.430576,-0.442498,-0.436628,-0.237626,-0.145333,-0.029076,-0.148343,0.443081,0.786035,0.850626,0.898123,0.674958,-0.505278,-0.85202,-0.713209,0.576665,0.050062,-0.028264,-0.034348,-0.23597,-0.513119,-0.425164,0.062074,1.031514,0.08896,-0.085366,0.223876,0.914512,-0.015717,0.073613,0.10143,0.073404,0.151233,1.46273,0.149128,0.016847,-0.067094,-0.097907,-0.014127,-0.561538,-0.446295,-0.320289,'\'(6.266667-10.533333]\''
-0.188269,-0.184534,-0.158393,-0.142587,-0.223961,-0.064814,0.11093,0.086415,0.265096,0.044437,0.384341,-0.198361,-0.235535,-0.43997,0.698855,-0.04826,0.267407,-0.120575,0.288333,-0.447863,-0.76503,0.211014,0.178316,'\'(14.9-27.8]\'',0.669567,0.457436,0.270643,0.254901,0.255798,-0.051678,0.139325,0.275277,-0.684641,-0.255815,0.426377,0.182835,0.765702,0.121365,0.251742,0.267587,0.333839,0.310793,0.302852,0.358399,1.219918,0.360931,-0.141767,-0.451972,0.300743,-0.209161,-0.141303,-0.03998,-0.475729,0.846465,-0.184763,-0.18272,-0.01277,-0.2261,-0.237717,-0.122514,0.163379,-0.270074,-0.352896,-0.375382,-0.469386,-0.511182,-0.500977,-0.355082,-0.417131,-0.468736,-2.02143,-0.417187,-0.090163,0.440686,-0.485349,-0.439703,-0.404847,-0.397317,-0.379182,-0.124174,-0.011044,0.067891,-0.028085,0.655574,1.026801,1.076505,1.019648,0.835423,-0.462244,-0.843537,-0.755364,0.534415,0.053126,-0.028264,-0.032847,-0.245271,-0.561725,-0.461811,0.066775,1.050734,0.091742,-0.081956,0.227254,0.926741,-0.011249,0.07715,0.105311,0.077121,0.155018,1.471703,0.152337,0.020112,-0.062186,-0.09463,-0.008659,-0.552208,-0.439865,-0.31847,'\'(6.266667-10.533333]\''
-0.129629,-0.113196,-0.1525,-0.136319,-0.217068,-0.050621,0.123938,0.094994,0.275523,0.057354,0.392615,-0.189545,-0.220718,-0.423281,0.703192,-0.033768,0.260424,-0.173193,0.343288,-0.397309,-0.723578,0.218195,0.188015,'\'(14.9-27.8]\'',0.887953,0.282601,0.260653,0.254901,0.24217,-0.135846,0.14993,0.308284,-0.583614,-0.231498,0.432521,0.197159,0.759757,0.129833,0.262646,0.280717,0.34719,0.321543,0.311914,0.423845,1.36105,0.424169,0.270017,-0.555737,0.644175,0.308561,0.189419,0.234613,0.001069,0.811401,0.25777,-0.289738,0.024406,-0.203107,-0.244518,-0.117524,0.163379,-0.268948,-0.352156,-0.3765,-0.465573,-0.509818,-0.499501,-0.355516,-0.411721,-0.463403,-2.140401,-0.414804,-0.102035,0.434196,-0.501996,-0.451479,-0.417711,-0.406999,-0.370111,-0.095,0.006172,0.067891,-0.017777,0.775102,1.13966,1.145524,1.05135,0.880553,-0.48909,-0.823367,-0.734776,0.598027,0.053126,-0.028264,-0.037349,-0.262545,-0.635307,-0.456381,0.070301,1.041124,0.090351,-0.077978,0.227254,0.929798,-0.005886,0.080687,0.109192,0.080837,0.155475,1.458749,0.150748,0.021945,-0.056052,-0.092445,-0.001823,-0.547134,-0.427173,-0.313649,'\'(6.266667-10.533333]\''
-0.16419,-0.159193,-0.14792,-0.134055,-0.224708,-0.042997,0.135837,0.108177,0.298702,0.093867,0.405763,-0.18288,-0.217504,-0.420256,0.681959,-0.031599,0.422952,-0.222826,0.320958,-0.331323,-0.70286,0.238647,0.20452,'\'(14.9-27.8]\'',0.802796,0.307257,0.311714,0.49486,0.205072,0.033424,0.158673,0.333901,-0.604845,-0.221899,0.448906,0.222398,0.762729,0.136916,0.269505,0.293038,0.34861,0.33089,0.320313,0.423845,1.36105,0.424169,-0.414541,-1.030092,-0.234607,-0.440484,0.134298,0.04715,-1.095566,0.484135,0.024073,0.361287,0.082185,-0.189775,-0.242756,-0.116826,0.081414,-0.268538,-0.352089,-0.376324,-0.466035,-0.510545,-0.500239,-0.350842,-0.411263,-0.459938,-2.009092,-0.40932,-0.12927,0.442162,-0.477026,-0.501524,-0.44344,-0.432816,-0.391275,-0.114449,-0.000714,0.064161,-0.031521,0.562609,1.026801,1.076505,0.998513,0.815365,-0.482519,-0.808229,-0.732816,0.53394,0.059254,-0.024,-0.032847,-0.234641,-0.618836,-0.441452,0.070301,1.015497,0.084786,-0.074568,0.225565,0.935913,-0.003205,0.081866,0.109192,0.080837,0.156147,1.464821,0.144871,0.024035,-0.053599,-0.089168,0.000911,-0.536314,-0.42731,-0.309765,'\'(6.266667-10.533333]\''
-0.162539,-0.156961,-0.134405,-0.115846,-0.206491,-0.041413,0.131154,0.102111,0.306656,0.091369,0.420536,-0.195733,-0.209925,-0.413864,0.711751,-0.027954,0.388406,-0.250311,0.305045,-0.250969,-0.644991,0.240926,0.208465,'\'(14.9-27.8]\'',0.072097,0.677101,0.343904,0.549318,0.224757,-0.016609,0.164385,0.327004,-0.629735,-0.232778,0.451773,0.229901,0.758766,0.143054,0.286564,0.30293,0.368609,0.340705,0.320976,0.031169,1.36105,0.107979,-0.244057,-0.585384,0.017917,-0.203654,-0.168863,-0.272328,-0.936633,0.250374,-0.244431,-0.147048,0.066291,-0.170724,-0.245207,-0.110327,-0.00055,-0.267575,-0.351954,-0.379797,-0.465978,-0.512728,-0.502546,-0.349927,-0.411199,-0.454922,-1.976787,-0.410418,-0.114189,0.398521,-0.421537,-0.413209,-0.356607,-0.342455,-0.291501,-0.013963,0.075038,0.123833,0.006275,0.735259,1.109564,1.089054,0.977378,0.770234,-0.49462,-0.85914,-0.758501,0.653094,0.062318,-0.019735,-0.026844,-0.25723,-0.626231,-0.383089,0.075002,1.012294,0.093134,-0.070021,0.227254,0.932856,0.002158,0.086582,0.111779,0.085792,0.160787,1.474098,0.14449,0.029391,-0.045011,-0.078244,0.01048,-0.529882,-0.426455,-0.312615,'\'(6.266667-10.533333]\''
-0.157974,-0.151171,-0.13418,-0.082398,-0.187574,-0.016672,0.158134,0.12761,0.33776,0.114031,0.456288,-0.180703,-0.188241,-0.396814,0.769433,0.003083,0.280435,-0.227602,0.451689,-0.223829,-0.610516,0.232527,0.203336,'\'(14.9-27.8]\'',0.260265,0.485455,0.308939,0.406364,0.240656,-0.076227,0.178999,0.375775,-0.655358,-0.189904,0.46611,0.249001,0.765702,0.154512,0.305031,0.317589,0.387783,0.350053,0.329818,0.554737,1.784449,0.613883,0.351324,-0.615031,0.896698,0.159854,0.529327,-0.079585,-0.793594,0.565952,-0.09029,-0.093539,0.059345,-0.232514,-0.24778,-0.109311,-0.082515,-0.266797,-0.351214,-0.381857,-0.464302,-0.512728,-0.502546,-0.341631,-0.409862,-0.44882,-1.945033,-0.416471,-0.066503,0.319361,-0.396567,-0.307231,-0.276206,-0.229503,-0.155444,0.161078,0.250646,0.273013,0.133406,1.213369,1.448142,1.352581,1.141173,0.91064,-0.516497,-0.871061,-0.7336,0.757532,0.06385,-0.019735,-0.023842,-0.234641,-0.630265,-0.31794,0.079703,1.031514,0.097307,-0.066043,0.228943,0.93897,0.00752,0.091298,0.11566,0.089509,0.166311,1.49002,0.144331,0.035405,-0.047465,-0.084798,0.007746,-0.523675,-0.414203,-0.30251,'\'(6.266667-10.533333]\''
-0.142031,-0.131938,-0.127006,-0.093154,-0.189131,-0.001856,0.171033,0.138315,0.349394,0.145753,0.453832,-0.171211,-0.172103,-0.374454,0.765764,0.024278,0.1638,-0.171258,0.535909,-0.223829,-0.588752,0.239427,0.215173,'\'(14.9-27.8]\'',0.333061,0.358811,0.234568,0.236181,0.214914,-0.037651,0.189856,0.420606,-0.669999,-0.153428,0.480857,0.270828,0.769665,0.162476,0.308196,0.333147,0.399998,0.352858,0.337112,0.554737,1.784449,0.613883,0.091664,-0.244441,0.866395,-0.154084,-0.058623,0.052431,-0.571088,0.57764,0.029045,0.004561,0.103713,-0.107349,-0.24695,-0.104299,-0.082515,-0.266592,-0.351012,-0.382328,-0.460778,-0.510909,-0.500701,-0.334724,-0.407826,-0.444746,-1.958926,-0.429385,0.031159,0.197373,-0.335529,-0.248354,-0.218317,-0.129459,-0.004271,0.349085,0.419368,0.422193,0.267408,1.585232,1.719003,1.521991,1.236279,0.995887,-0.509204,-0.887037,-0.752423,0.845829,0.06385,-0.019735,-0.023842,-0.234641,-0.572448,-0.300296,0.080878,1.021904,0.10009,-0.059792,0.230632,0.945085,0.009308,0.093656,0.118247,0.090748,0.168692,1.49164,0.147349,0.037439,-0.045011,-0.079336,0.009113,-0.511187,-0.407098,-0.297885,'\'(6.266667-10.533333]\''
-0.138513,-0.126541,-0.130081,-0.088237,-0.193349,0.00985,0.180271,0.147344,0.369777,0.153452,0.482112,-0.167254,-0.15843,-0.362044,0.797741,0.038429,0.182488,-0.159437,0.574917,-0.143475,-0.463501,0.24436,0.234045,'\'(14.9-27.8]\'',0.072097,0.394675,0.187393,0.176616,0.177059,0.032489,0.200366,0.451149,-0.691961,-0.129752,0.492326,0.286517,0.774618,0.171007,0.328421,0.348435,0.4096,0.349118,0.346174,0.620183,1.643316,0.677121,0.251657,-0.481619,0.674477,0.325084,0.024058,0.062992,-0.443942,0.682832,-0.010733,-0.04003,0.130582,-0.145297,-0.245344,-0.089119,-0.00055,-0.266142,-0.349413,-0.381386,-0.460662,-0.513092,-0.503008,-0.329351,-0.405456,-0.43756,-1.90806,-0.426526,0.019235,0.18265,-0.210678,-0.095275,-0.070379,0.035128,0.14388,0.433364,0.491677,0.463217,0.301768,1.638355,1.576048,1.371404,1.056633,0.820379,-0.52988,-0.884373,-0.709484,0.835386,0.06385,-0.022578,-0.022342,-0.255901,-0.522027,-0.269079,0.084404,1.037921,0.094525,-0.055814,0.235699,0.969543,0.011095,0.096014,0.120835,0.094464,0.171623,1.508979,0.14646,0.040274,-0.040104,-0.073874,0.011848,-0.51876,-0.397698,-0.300789,'\'(-inf-6.266667]\''
-0.140859,-0.129068,-0.119896,-0.069543,-0.181936,0.0268,0.197145,0.163283,0.39734,0.176603,0.511752,-0.159177,-0.142015,-0.356723,0.811799,0.045958,0.29874,-0.165163,0.571788,-0.197222,-0.5028,0.237554,0.226483,'\'(14.9-27.8]\'',0.216314,0.380105,0.131337,0.202144,0.089235,-0.056354,0.210371,0.4812,-0.686837,-0.121433,0.511988,0.31312,0.783535,0.179065,0.342315,0.363903,0.42386,0.349586,0.348385,0.620183,1.784449,0.677121,-0.055214,-0.437148,0.442156,-0.115531,-0.132116,-0.03998,-0.396262,0.519199,-0.144985,-0.048948,0.159079,-0.042003,-0.23873,-0.081644,-0.00055,-0.265752,-0.351315,-0.389627,-0.458063,-0.512455,-0.502454,-0.324079,-0.402666,-0.432398,-1.864398,-0.423465,0.006069,0.153289,-0.144091,-0.095275,-0.070379,0.018992,0.131786,0.407432,0.464131,0.455758,0.312076,1.266492,1.335282,1.170622,0.919257,0.715075,-0.561774,-0.896524,-0.666348,0.848678,0.065382,-0.021157,-0.013337,-0.249257,-0.482026,-0.161855,0.089105,1.063548,0.105655,-0.051267,0.245833,0.98483,0.01467,0.101909,0.127303,0.099419,0.176537,1.521123,0.153957,0.043596,-0.038877,-0.072782,0.014582,-0.514997,-0.385101,-0.298114,'\'(-inf-6.266667]\''
-0.137864,-0.124382,-0.121017,-0.078551,-0.180566,0.030009,0.196247,0.161415,0.379116,0.183267,0.477309,-0.142747,-0.134937,-0.339684,0.80047,0.054931,0.301389,-0.199062,0.575841,-0.089197,-0.431784,0.240395,0.22885,'\'(14.9-27.8]\'',0.302844,0.231047,0.179623,0.380837,0.075607,-0.046067,0.222018,0.502384,-0.703674,-0.103515,0.518542,0.319941,0.789479,0.189327,0.357616,0.376494,0.440819,0.347716,0.354353,0.620183,1.784449,0.677121,0.023471,-0.52609,0.59367,-0.269746,0.318033,-0.098067,-0.157864,0.507511,-0.135041,-0.387838,0.158493,-0.067199,-0.237363,-0.072483,-0.00055,-0.264626,-0.349851,-0.390863,-0.456098,-0.512274,-0.502454,-0.314914,-0.398817,-0.430714,-1.873607,-0.426137,0.030728,0.078533,-0.141317,-0.042286,-0.009274,0.083536,0.195279,0.475503,0.532997,0.507971,0.363615,1.532108,1.485761,1.289836,0.987945,0.785278,-0.600881,-0.936947,-0.626154,0.843931,0.073041,-0.012629,-0.005833,-0.262545,-0.462529,-0.102135,0.094982,1.044327,0.122351,-0.046721,0.255967,1.000116,0.017352,0.106625,0.135065,0.105614,0.182916,1.541363,0.16517,0.047205,-0.033969,-0.065135,0.018683,-0.525453,-0.386995,-0.296705,'\'(-inf-6.266667]\''
-0.135348,-0.122076,-0.109743,-0.030233,-0.16641,0.046904,0.214331,0.183826,0.42702,0.225335,0.527687,-0.137571,-0.119815,-0.336322,0.868956,0.076395,0.205148,-0.158585,0.65295,-0.170615,-0.485515,0.259847,0.249761,'\'(14.9-27.8]\'',0.098193,0.514594,0.139662,0.246392,0.080907,-0.073889,0.231329,0.536376,-0.70221,-0.094556,0.54148,0.352683,0.797405,0.196441,0.372916,0.401315,0.456102,0.345379,0.355458,0.554737,1.784449,0.613883,0.052322,-0.303736,0.341146,0.203915,-0.279104,0.012826,-0.443942,0.542576,-0.02565,-0.075702,0.168695,-0.059083,-0.236743,-0.062564,-0.16448,-0.264646,-0.350271,-0.397397,-0.455925,-0.513001,-0.5031,-0.30802,-0.395383,-0.425233,-1.841121,-0.416136,-0.03281,0.086013,-0.083053,-0.015791,0.038966,0.12549,0.219466,0.465778,0.512337,0.493053,0.342999,1.359458,1.305187,1.120427,0.855853,0.649886,-0.605288,-0.922136,-0.634977,0.823518,0.080701,-0.0041,0.006173,-0.263874,-0.50522,-0.050559,0.102034,1.012294,0.144611,-0.041606,0.266101,1.006231,0.023608,0.113699,0.141533,0.113046,0.187587,1.544365,0.174764,0.050154,-0.031516,-0.064043,0.022784,-0.521053,-0.376423,-0.301007,'\'(-inf-6.266667]\''
-0.12773,-0.113098,-0.107181,-0.0393,-0.156931,0.054503,0.217603,0.182448,0.405171,0.233454,0.486381,-0.12371,-0.108314,-0.320833,0.85658,0.086167,0.160689,-0.145977,0.659368,-0.144008,-0.429911,0.264406,0.261104,'\'(14.9-27.8]\'',0.098193,0.232168,0.137442,0.283832,0.061222,-0.101945,0.242186,0.571353,-0.686837,-0.071519,0.554998,0.373147,0.800377,0.205035,0.389096,0.418941,0.47343,0.338836,0.36231,0.554737,1.643316,0.550645,0.11527,-0.570561,0.543165,0.011146,0.244539,0.105237,-0.571088,0.449071,0.068823,0.209678,0.164045,-0.057035,-0.233035,-0.055324,-0.082515,-0.26438,-0.350204,-0.399987,-0.455001,-0.512364,-0.502546,-0.304467,-0.391091,-0.415865,-1.781485,-0.414017,-0.041377,0.042108,-0.010917,0.037198,0.083991,0.177125,0.279936,0.530608,0.588089,0.593749,0.425462,1.279773,1.260043,1.095329,0.861137,0.639857,-0.628688,-0.933685,-0.588117,0.708161,0.076105,-0.011207,0.013677,-0.28912,-0.536145,-0.022057,0.10556,1.025107,0.146003,-0.036491,0.26779,1.012346,0.026289,0.117236,0.144121,0.115524,0.189845,1.54622,0.17524,0.052732,-0.026608,-0.056396,0.026886,-0.506697,-0.35267,-0.302403,'\'(-inf-6.266667]\''
-0.112149,-0.097814,-0.096452,-0.023384,-0.149986,0.07538,0.245929,0.21383,0.443315,0.266191,0.52704,-0.09821,-0.095397,-0.30405,0.857069,0.10959,0.176134,-0.185652,0.745225,-0.009375,-0.313536,0.274491,0.275077,'\'(14.9-27.8]\'',-0.241061,0.194063,0.253438,0.557828,0.097563,-0.087216,0.248814,0.584655,-0.712459,-0.070239,0.567287,0.392246,0.802359,0.210795,0.401056,0.435129,0.484679,0.33089,0.363857,0.554737,1.925582,0.677121,0.052322,-0.674326,0.472459,0.060715,0.069991,0.065633,-0.634661,0.717897,-0.015706,0.05807,0.211599,-0.021831,-0.225713,-0.046073,-0.16448,-0.264728,-0.350507,-0.401635,-0.453961,-0.512819,-0.502915,-0.29632,-0.387638,-0.40812,-1.764823,-0.416471,-0.00911,-0.026969,-0.002594,0.181445,0.19012,0.290077,0.385758,0.634336,0.684502,0.679528,0.501053,1.704759,1.478237,1.25219,0.966811,0.735133,-0.648242,-0.937858,-0.509101,0.690597,0.069978,-0.016893,0.021181,-0.303737,-0.527741,0.06888,0.106735,1.005887,0.147394,-0.030808,0.26779,1.01846,0.029864,0.119594,0.145414,0.116763,0.193295,1.548143,0.172413,0.057773,-0.021701,-0.046565,0.02962,-0.504047,-0.346821,-0.310078,'\'(-inf-6.266667]\''
-0.11257,-0.098845,-0.095171,-0.004871,-0.147315,0.092819,0.259095,0.227554,0.446659,0.263168,0.534573,-0.079102,-0.07449,-0.289212,0.896343,0.130234,0.078592,-0.063044,0.813124,-0.036514,-0.27787,0.279081,0.28836,'\'(14.9-27.8]\'',0.026771,0.060695,0.093042,0.271919,0.005954,-0.112466,0.261786,0.621603,-0.718316,-0.049122,0.584491,0.418167,0.806322,0.221372,0.419346,0.449878,0.5057,0.325749,0.368941,0.620183,1.784449,0.677121,0.212314,0.096502,0.896698,-0.049438,-0.049436,-0.084865,-0.539302,0.484135,-0.020678,-0.316493,0.21735,0.040887,-0.22271,-0.038071,-0.16448,-0.264585,-0.350019,-0.404166,-0.451419,-0.512364,-0.502269,-0.287857,-0.384038,-0.405221,-1.746678,-0.418651,0.021725,-0.097816,0.144452,0.26976,0.299466,0.396575,0.515767,0.738064,0.760254,0.720552,0.542285,1.571951,1.320235,1.057682,0.744895,0.529538,-0.62356,-0.940918,-0.542825,0.758956,0.079169,-0.005522,0.034688,-0.287792,-0.514632,0.176104,0.111436,0.98987,0.15435,-0.025693,0.271168,1.030689,0.034333,0.12431,0.149295,0.120479,0.197171,1.558465,0.174319,0.061467,-0.018021,-0.050934,0.035088,-0.498692,-0.338412,-0.315214,'\'(-inf-6.266667]\''
-0.104229,-0.090945,-0.090559,0.011049,-0.144629,0.118671,0.282012,0.250792,0.477125,0.288074,0.567892,-0.064561,-0.046778,-0.26084,0.920698,0.157732,0.126147,-0.097102,0.919977,0.044904,-0.183415,0.280954,0.2951,'\'(14.9-27.8]\'',-0.025422,0.040522,-0.005749,0.144282,-0.072028,-0.13491,0.271412,0.644757,-0.730029,-0.038884,0.597599,0.433855,0.815239,0.229493,0.434119,0.467234,0.51516,0.321075,0.373583,0.685629,1.925582,0.677121,0.065436,-0.481619,0.543165,0.000131,0.033244,0.062992,-0.062504,0.776337,0.043962,-0.42351,0.246058,-0.030333,-0.221834,-0.027942,-0.246444,-0.264626,-0.350154,-0.407227,-0.448299,-0.511091,-0.500977,-0.281166,-0.378206,-0.393326,-1.665164,-0.423185,0.069665,-0.180732,0.188843,0.402233,0.399163,0.554708,0.697175,0.757513,0.708605,0.638503,0.466694,2.156307,1.244995,0.863175,0.544115,0.338987,-0.596874,-0.919739,-0.602626,0.875737,0.086829,0.001585,0.042192,-0.270518,-0.546229,0.290114,0.114962,0.977057,0.159916,-0.020578,0.277924,1.039861,0.03612,0.125489,0.15447,0.124196,0.198484,1.552157,0.175272,0.0633,-0.016794,-0.052027,0.037822,-0.495973,-0.325142,-0.314994,'\'(-inf-6.266667]\''
-0.096082,-0.085598,-0.090623,0.020486,-0.139566,0.123711,0.285075,0.251786,0.468823,0.299917,0.546384,-0.055233,-0.040027,-0.256046,0.944298,0.16196,0.136377,-0.066727,0.890232,-0.036514,-0.27787,0.283671,0.293193,'\'(14.9-27.8]\'',0.225928,0.060695,-0.05681,0.033662,-0.09247,-0.086748,0.281891,0.669881,-0.743938,-0.033764,0.615622,0.453637,0.8301,0.238339,0.445902,0.488188,0.526665,0.316401,0.375572,0.685629,2.066715,0.677121,-0.060459,-0.629855,0.15933,0.071731,-0.086183,-0.238003,-0.507515,0.33219,-0.135041,-0.530528,0.222281,-0.001234,-0.226946,-0.015085,-0.16448,-0.264482,-0.349144,-0.408522,-0.449628,-0.51191,-0.501716,-0.268112,-0.373156,-0.387184,-1.644251,-0.415349,0.014716,-0.199025,0.211039,0.390458,0.434539,0.554708,0.669964,0.75103,0.698275,0.638503,0.459822,1.930533,1.169756,0.794156,0.501845,0.288842,-0.631012,-0.923863,-0.571451,0.989194,0.091425,0.004428,0.061702,-0.25723,-0.518329,0.397338,0.119663,0.98026,0.164089,-0.0166,0.277924,1.049033,0.04327,0.131384,0.159645,0.129151,0.202635,1.570778,0.173652,0.067768,-0.015567,-0.058581,0.041924,-0.49,-0.318591,-0.315569,'\'(-inf-6.266667]\''
-0.092109,-0.081574,-0.093858,0.008415,-0.154407,0.120466,0.283565,0.253375,0.477886,0.285469,0.570924,-0.05447,-0.044831,-0.257609,0.919449,0.156,0.234317,-0.064787,0.8005,-0.032257,-0.231806,0.286075,0.301906,'\'(14.9-27.8]\'',-0.029542,0.097679,-0.085115,0.140878,-0.17878,-0.066875,0.287856,0.649191,-0.77615,-0.060641,0.61726,0.469326,0.811276,0.24561,0.455751,0.509862,0.534846,0.312662,0.377782,0.423845,1.925582,0.613883,-0.299136,-0.585384,0.118926,-0.434976,-0.067809,-0.311932,-0.936633,0.203622,-0.289181,-0.164884,0.262069,0.064343,-0.224026,-0.004991,-0.082515,-0.265302,-0.349565,-0.413113,-0.451534,-0.514456,-0.504299,-0.252787,-0.367817,-0.385281,-1.648472,-0.402364,-0.071288,-0.189417,0.319243,0.369851,0.453836,0.496618,0.564143,0.624612,0.591533,0.563913,0.380795,0.947752,0.582889,0.354945,0.190107,-0.022058,-0.642873,-0.939009,-0.576549,0.928905,0.09602,0.008692,0.075209,-0.2466,-0.500178,0.421769,0.124364,0.97065,0.171046,-0.012054,0.281302,1.06432,0.047739,0.1361,0.164819,0.132868,0.206267,1.570238,0.174033,0.072264,-0.01066,-0.042195,0.047392,-0.497525,-0.319538,-0.325268,'\'(-inf-6.266667]\''
-0.087596,-0.077134,-0.084698,0.007661,-0.143375,0.124307,0.289355,0.259226,0.47577,0.279893,0.571203,-0.039903,-0.042997,-0.249106,0.903802,0.162808,0.215777,-0.037807,0.784392,-0.081747,-0.261665,0.285856,0.302794,'\'(14.9-27.8]\'',-0.037783,0.186218,-0.117305,-0.148434,-0.093984,-0.055185,0.294611,0.671852,-0.773221,-0.028645,0.616032,0.478875,0.794433,0.250899,0.454872,0.521913,0.527773,0.314532,0.382203,0.489291,1.643316,0.487407,-0.474866,-0.659502,0.028017,-0.396423,-0.619012,-0.385861,-0.682341,0.203622,-0.179791,-0.753482,0.250731,0.044712,-0.21888,0.00645,0.081414,-0.265445,-0.349363,-0.41535,-0.448761,-0.514547,-0.504392,-0.244217,-0.363577,-0.378257,-1.608058,-0.393617,-0.125948,-0.204879,0.335889,0.369851,0.440971,0.451437,0.482509,0.520884,0.498564,0.511701,0.329255,0.509485,0.296979,0.147889,0.084433,-0.127362,-0.72349,-1.01544,-0.521257,0.963085,0.099084,0.011535,0.084213,-0.254572,-0.499505,0.412268,0.12789,0.98026,0.178002,-0.008075,0.281302,1.070434,0.053102,0.140816,0.167407,0.136584,0.210052,1.580831,0.172254,0.076875,-0.006979,-0.038918,0.047392,-0.495136,-0.307717,-0.331172,'\'(-inf-6.266667]\''
-0.085506,-0.07392,-0.087548,-0.008295,-0.142691,0.119651,0.277127,0.247484,0.456738,0.271287,0.545771,-0.04219,-0.040263,-0.251577,0.890871,0.15402,0.196296,-0.095591,0.677681,-0.049818,-0.345206,0.300906,0.302465,'\'(14.9-27.8]\'',0.179229,0.291567,-0.014074,0.04047,-0.037201,-0.00866,0.299566,0.683183,-0.786399,-0.022246,0.622176,0.489789,0.793442,0.255117,0.465248,0.528747,0.542118,0.310793,0.38375,0.162061,0.937652,0.107979,-0.427655,-0.911503,0.048219,-0.418453,-0.279104,-0.298731,-0.666448,0.250374,-0.274265,-0.334329,0.233314,0.04904,-0.221831,0.01882,0.081414,-0.264913,-0.348,-0.417587,-0.44541,-0.513365,-0.503284,-0.239401,-0.360052,-0.372835,-1.579525,-0.382121,-0.183175,-0.207151,0.35531,0.361019,0.415243,0.412711,0.434133,0.459296,0.450357,0.478135,0.294896,0.204027,0.101357,0.016125,-0.000106,-0.212609,-0.749535,-1.083086,-0.507337,0.813549,0.10368,0.015799,0.094719,-0.23597,-0.455134,0.372907,0.134942,0.97065,0.189133,-0.005234,0.291436,1.079606,0.058464,0.145532,0.175169,0.144017,0.215455,1.583057,0.179846,0.0814,-0.004525,-0.033456,0.047392,-0.485956,-0.30002,-0.308396,'\'(-inf-6.266667]\''
-0.084133,-0.073945,-0.074929,0.007289,-0.12832,0.132453,0.293591,0.265447,0.470718,0.251495,0.581895,-0.022489,-0.031438,-0.243906,0.903793,0.163813,0.32744,-0.133161,0.676739,-0.207333,-0.415791,0.277832,0.285237,'\'(14.9-27.8]\'',0.004795,0.248979,0.043646,0.382539,-0.11064,0.085093,0.298998,0.656088,-0.803969,-0.042723,0.613983,0.485697,0.779572,0.256281,0.465072,0.531086,0.542004,0.310325,0.380214,0.162061,1.078785,0.297693,-0.304382,-0.585384,-0.133598,-0.346853,-0.003502,-0.267047,-0.793594,0.250374,-0.239459,-0.218393,0.250145,0.132664,-0.215416,0.026733,0.163379,-0.265732,-0.343793,-0.410582,-0.445121,-0.515366,-0.505222,-0.228607,-0.355602,-0.367896,-1.547474,-0.369736,-0.242016,-0.200405,0.344213,0.343356,0.421675,0.380439,0.352499,0.313428,0.302296,0.336414,0.157457,-0.101432,-0.207125,-0.228578,-0.179751,-0.393131,-0.724772,-1.06899,-0.546354,0.740917,0.105212,0.017221,0.09772,-0.253244,-0.459504,0.314545,0.138468,0.96104,0.196089,-0.001824,0.294814,1.082664,0.062039,0.150248,0.177756,0.147733,0.21863,1.565853,0.182451,0.085724,-0.002072,-0.031271,0.05286,-0.476262,-0.287925,-0.312099,'\'(-inf-6.266667]\''
-0.077532,-0.065163,-0.060869,0.027839,-0.11618,0.141077,0.310117,0.283429,0.486839,0.266121,0.598562,-0.002757,-0.030657,-0.236408,0.876481,0.175821,0.294299,-0.120234,0.68618,-0.175936,-0.392053,0.280892,0.288558,'\'(14.9-27.8]\'',0.198458,0.273635,-0.12896,-0.008884,-0.171966,0.066389,0.306699,0.664955,-0.817146,-0.023526,0.609478,0.478875,0.778581,0.263396,0.474217,0.548622,0.550555,0.31126,0.386181,0.292953,1.219918,0.297693,-0.390935,-0.644679,0.139128,-0.462515,-0.325037,-0.177276,-0.82538,0.449071,-0.144985,-0.218393,0.217502,0.067628,-0.218001,0.031497,0.081414,-0.265957,-0.339637,-0.403695,-0.444659,-0.515093,-0.505038,-0.223135,-0.351389,-0.364223,-1.539934,-0.357632,-0.295956,-0.194002,0.341438,0.30803,0.357354,0.299759,0.243654,0.157836,0.143904,0.205882,0.054378,-0.566261,-0.56075,-0.510928,-0.359397,-0.538551,-0.733187,-1.073716,-0.531845,0.81972,0.105212,0.017221,0.102223,-0.245271,-0.503875,0.303687,0.141994,0.95143,0.208611,0.002154,0.298192,1.082664,0.065614,0.154964,0.181637,0.15145,0.220644,1.555666,0.182197,0.088961,0.004062,-0.025809,0.056962,-0.465058,-0.275866,-0.313701,'\'(-inf-6.266667]\''
-0.071497,-0.058809,-0.065673,0.002391,-0.122833,0.129999,0.298083,0.268397,0.465436,0.210875,0.60029,-0.010802,-0.040415,-0.246834,0.828027,0.158279,0.31602,-0.117624,0.525117,-0.062057,-0.329496,0.293194,0.298224,'\'(14.9-27.8]\'',0.037759,0.510111,-0.103985,0.042171,-0.160609,0.090471,0.309571,0.656088,-0.825931,-0.015847,0.597599,0.478193,0.750841,0.266827,0.474745,0.552489,0.552458,0.314532,0.384413,0.292953,1.219918,0.234455,0.081173,-0.807738,0.078522,0.440746,-0.021876,-0.047901,-0.857167,0.542576,0.0191,-0.129211,0.204196,0.018049,-0.220391,0.037687,0.163379,-0.265691,-0.336524,-0.398397,-0.444024,-0.514729,-0.504853,-0.213478,-0.346039,-0.35933,-1.521366,-0.343596,-0.355272,-0.173105,0.299821,0.263873,0.341274,0.283623,0.228537,0.183768,0.18178,0.246906,0.102482,-0.433453,-0.387699,-0.347792,-0.222021,-0.393131,-0.735751,-1.046366,-0.531061,0.742341,0.108276,0.018642,0.103723,-0.263874,-0.541523,0.334904,0.144345,0.954633,0.198872,0.006132,0.298192,1.082664,0.069189,0.156143,0.182931,0.152689,0.223239,1.551618,0.184579,0.091796,0.01265,-0.024717,0.067899,-0.459174,-0.272044,-0.313949,'\'(-inf-6.266667]\''
-0.068885,-0.055129,-0.057026,0.045482,-0.112549,0.164748,0.339557,0.312011,0.523491,0.290308,0.642508,0.019605,-0.013386,-0.217224,0.8171,0.188056,0.522848,-0.11453,0.630922,-0.084407,-0.336729,0.292975,0.299407,'\'(14.9-27.8]\'',0.181976,0.363294,-0.059585,0.203846,-0.171966,0.01963,0.317903,0.678256,-0.838376,-0.000489,0.60661,0.491836,0.752822,0.27372,0.483363,0.555007,0.558821,0.319206,0.382645,0.358399,1.36105,0.297693,-0.036854,-0.748444,0.502761,-0.054946,-0.031063,0.036589,-0.793594,0.624392,0.029045,0.040234,0.268113,0.086331,-0.215201,0.041089,0.081414,-0.265711,-0.332889,-0.392747,-0.444255,-0.515275,-0.505315,-0.208244,-0.343336,-0.356157,-1.512883,-0.342241,-0.350871,-0.217924,0.269302,0.272704,0.334842,0.296532,0.276912,0.258323,0.25409,0.306578,0.154021,-0.074871,-0.131885,-0.14701,-0.079361,-0.262754,-0.703216,-0.973658,-0.586744,0.713858,0.106744,0.017221,0.103723,-0.28912,-0.516985,0.347119,0.14787,0.98987,0.191915,0.011816,0.30157,1.088778,0.072764,0.159679,0.186812,0.156405,0.227695,1.555902,0.186644,0.09655,0.01265,-0.023624,0.069266,-0.441544,-0.260415,-0.30991,'\'(-inf-6.266667]\''
-0.061935,-0.046003,-0.052862,0.04283,-0.111195,0.175185,0.351154,0.322818,0.531161,0.317667,0.636864,0.034712,-0.004463,-0.191345,0.820638,0.210968,0.385347,-0.026156,0.694269,-0.079618,-0.331957,0.301562,0.308646,'\'(14.9-27.8]\'',0.353663,0.208632,-0.10676,0.014942,-0.152281,0.046517,0.325068,0.699933,-0.845697,0.023828,0.609478,0.500703,0.746878,0.279481,0.487232,0.560223,0.563793,0.325282,0.382866,0.358399,1.36105,0.360931,-0.160127,-0.852209,0.260339,-0.2367,0.125112,0.129,-0.682341,0.682832,0.217992,-0.093539,0.336082,0.315486,-0.20524,0.046965,-0.00055,-0.266408,-0.330685,-0.389509,-0.443793,-0.514911,-0.504945,-0.204223,-0.340296,-0.351044,-1.492454,-0.326927,-0.412294,-0.190891,0.285949,0.249154,0.29625,0.261032,0.237607,0.180527,0.154234,0.213341,0.064686,-0.327206,-0.357603,-0.366615,-0.243156,-0.423218,-0.710748,-0.916143,-0.602038,0.693445,0.109808,0.021485,0.102223,-0.258559,-0.510262,0.330832,0.150221,0.983463,0.187741,0.016362,0.30157,1.091836,0.076339,0.162037,0.188105,0.158883,0.22913,1.546119,0.187438,0.098784,0.015104,-0.019255,0.070633,-0.436436,-0.250798,-0.30812,'\'(-inf-6.266667]\''
-0.059286,-0.040017,-0.05978,0.043962,-0.115062,0.170718,0.337025,0.302703,0.495507,0.287758,0.598316,0.033347,0.000451,-0.188413,0.821083,0.207703,0.243693,-0.11874,0.606902,-0.046625,-0.27492,0.30484,0.31703,'\'(14.9-27.8]\'',0.172362,0.302774,-0.12563,0.026855,-0.183322,0.090938,0.329897,0.698947,-0.85375,0.042386,0.596779,0.493882,0.726072,0.28436,0.493211,0.562292,0.561889,0.329956,0.390381,0.358399,1.36105,0.297693,-0.160127,-0.644679,0.108825,-0.198146,0.069991,0.073554,-0.682341,0.764649,0.198103,-0.307574,0.281008,0.17096,-0.20326,0.053389,0.163379,-0.26737,-0.328783,-0.388803,-0.443619,-0.515639,-0.505684,-0.203962,-0.339024,-0.348741,-1.494548,-0.323695,-0.416416,-0.22144,0.274851,0.272704,0.29625,0.267487,0.228537,0.135146,0.099141,0.138751,0.002839,-0.313925,-0.432843,-0.441909,-0.327695,-0.493421,-0.744005,-0.913236,-0.564981,0.669235,0.114404,0.024328,0.100722,-0.259887,-0.536817,0.265683,0.154922,0.986667,0.193307,0.019772,0.306637,1.094893,0.081702,0.167932,0.19328,0.163838,0.234502,1.544466,0.191504,0.104512,0.018784,-0.018162,0.073367,-0.421895,-0.243114,-0.309502,'\'(-inf-6.266667]\''
-0.053396,-0.031603,-0.045015,0.061715,-0.099657,0.177506,0.344709,0.309555,0.508492,0.289849,0.61811,0.039635,0.006112,-0.176567,0.78898,0.209967,0.425432,-0.097569,0.54839,-0.123786,-0.353421,0.301655,0.310455,'\'(14.9-27.8]\'',0.291856,0.272514,-0.088445,0.083016,-0.157581,0.116656,0.334284,0.695991,-0.869123,0.045585,0.593502,0.496611,0.714183,0.288924,0.498839,0.568047,0.56419,0.337434,0.39016,0.358399,1.36105,0.360931,0.057568,-1.044916,0.502761,0.308561,-0.12293,0.152763,-0.714128,0.671144,0.138435,0.15617,0.288891,0.254738,-0.198629,0.056063,0.081414,-0.268026,-0.32769,-0.388096,-0.442175,-0.515639,-0.505591,-0.196081,-0.337177,-0.334593,-1.38749,-0.313873,-0.449617,-0.204245,0.285949,0.249154,0.321978,0.251351,0.180161,0.080041,0.061265,0.101456,-0.021213,-0.579542,-0.590845,-0.536025,-0.401667,-0.54858,-0.745287,-0.902332,-0.595175,0.705313,0.118999,0.02717,0.09772,-0.230655,-0.518329,0.241253,0.157273,0.973853,0.187741,0.02375,0.304948,1.101008,0.085277,0.169111,0.19328,0.165077,0.234441,1.531951,0.186358,0.106688,0.021238,-0.0127,0.076101,-0.430312,-0.224701,-0.312309,'\'(-inf-6.266667]\''
-0.050103,-0.02942,-0.033646,0.072078,-0.097112,0.18664,0.354298,0.321933,0.520415,0.305858,0.62696,0.051904,0.014454,-0.164757,0.762258,0.218557,0.439447,-0.069414,0.523108,0.075768,-0.205683,0.298439,0.307167,'\'(14.9-27.8]\'',0.085831,0.340879,-0.092885,0.137474,-0.187865,0.060544,0.339334,0.700918,-0.869855,0.036626,0.602924,0.525942,0.694369,0.293646,0.501653,0.573173,0.571349,0.341173,0.390823,0.162061,1.078785,0.107979,0.002488,-1.000445,0.331046,0.132315,0.106738,0.184447,-0.666448,0.507511,0.118546,0.39696,0.372438,0.403515,-0.191047,0.056051,-0.16448,-0.269378,-0.326074,-0.386272,-0.438304,-0.514274,-0.504299,-0.192998,-0.336134,-0.333298,-1.397093,-0.299042,-0.502264,-0.157021,0.23046,0.219715,0.251225,0.20617,0.14388,0.021694,-0.014488,0.026866,-0.086496,-0.473295,-0.575797,-0.548574,-0.401667,-0.543566,-0.729741,-0.903228,-0.638311,0.780793,0.128191,0.038542,0.100722,-0.198764,-0.483034,0.248039,0.159623,0.98026,0.187741,0.02716,0.310015,1.104065,0.087065,0.172648,0.197161,0.168793,0.23844,1.542138,0.191219,0.109724,0.022465,-0.022532,0.081569,-0.42103,-0.214216,-0.313353,'\'(-inf-6.266667]\''
-0.043933,-0.027408,-0.041749,0.050149,-0.098361,0.17211,0.325489,0.289883,0.475914,0.236501,0.599955,0.034649,0.014189,-0.159905,0.737308,0.201668,0.510477,-0.061929,0.354667,-0.057268,-0.318378,0.301718,0.308383,'\'(14.9-27.8]\'',0.172362,0.310619,-0.070685,0.214057,-0.19165,0.102628,0.339082,0.694021,-0.873515,0.043665,0.593502,0.520485,0.679507,0.293835,0.502005,0.574522,0.570951,0.346314,0.387287,-0.4924,1.078785,-0.650877,0.09691,-1.10421,0.644175,-0.0219,0.474207,0.039229,-1.175032,0.659456,0.078768,0.147251,0.284909,0.176138,-0.179177,0.062221,0.245344,-0.270197,-0.322978,-0.386448,-0.440673,-0.515184,-0.504945,-0.184675,-0.332653,-0.327349,-1.376679,-0.299159,-0.487026,-0.183868,0.219362,0.149063,0.2062,0.138399,0.077363,-0.026929,-0.035147,0.023137,-0.093368,-0.71235,-0.658561,-0.561123,-0.385815,-0.533537,-0.714755,-0.864584,-0.661251,0.7694,0.134319,0.04707,0.102223,-0.154915,-0.488413,0.191034,0.169026,0.996277,0.205828,0.032275,0.325215,1.113237,0.092427,0.18208,0.206217,0.177465,0.243079,1.545647,0.203576,0.111872,0.03964,0.002593,0.096608,-0.414487,-0.215233,-0.314973,'\'(-inf-6.266667]\''
-0.028698,-0.010236,-0.028009,0.069801,-0.082255,0.210952,0.373049,0.342193,0.534649,0.304423,0.651075,0.074826,0.043172,-0.129014,0.732998,0.23968,0.599878,0.008715,0.487958,-0.10729,-0.316948,0.312209,0.325283,'\'(14.9-27.8]\'',0.15588,0.17501,-0.106205,0.118754,-0.197707,0.117825,0.352338,0.735895,-0.853017,0.08206,0.602514,0.532081,0.684461,0.30438,0.508512,0.57713,0.578933,0.356597,0.395023,0.423845,1.36105,0.360931,0.159858,-0.555737,0.139128,0.022162,0.740622,0.12636,-0.87306,0.717897,0.103629,0.182924,0.225959,0.181355,-0.175603,0.062555,0.245344,-0.271221,-0.320639,-0.383799,-0.444139,-0.518004,-0.507898,-0.181569,-0.330795,-0.323456,-1.398574,-0.271804,-0.58036,-0.078955,0.125031,0.075468,0.151528,0.089991,0.032011,-0.020446,0.019945,0.090268,-0.038393,-0.460014,-0.387699,-0.247401,-0.111063,-0.282812,-0.702815,-0.864221,-0.647134,0.808802,0.134319,0.045649,0.094719,-0.130997,-0.482026,0.102812,0.172552,0.98026,0.212785,0.035116,0.326904,1.116294,0.096896,0.185617,0.211391,0.18242,0.246376,1.539946,0.208658,0.114965,0.033506,-0.007238,0.091139,-0.400413,-0.213463,-0.309654,'\'(-inf-6.266667]\''
-0.022249,-0.004397,-0.019265,0.070893,-0.078205,0.207006,0.366893,0.328923,0.510646,0.221492,0.666334,0.070614,0.041487,-0.138338,0.751065,0.233678,0.560431,0.007616,0.37682,-0.046093,-0.272279,0.319328,0.332615,'\'(14.9-27.8]\'',-0.007566,0.167165,-0.024619,0.149387,-0.100041,0.16061,0.360386,0.733432,-0.842768,0.101898,0.587358,0.515028,0.672572,0.312565,0.515899,0.583605,0.587058,0.360336,0.405411,0.292953,1.078785,0.234455,-0.015871,-0.511266,0.573468,0.011146,-0.279104,0.171245,-0.539302,0.916594,0.009156,0.165088,0.392314,0.341029,-0.15037,0.061412,-0.082515,-0.270381,-0.316416,-0.378796,-0.441366,-0.517003,-0.506791,-0.177703,-0.327391,-0.321062,-1.414662,-0.273728,-0.559129,-0.105832,0.150001,0.122569,0.193336,0.151307,0.15295,0.170802,0.178337,0.22453,0.099046,-0.048309,-0.011502,-0.015247,0.031596,-0.127362,-0.703456,-0.862716,-0.664584,0.763229,0.146574,0.061284,0.099221,-0.154915,-0.405049,0.115027,0.178428,0.993073,0.221132,0.037958,0.338727,1.122409,0.100471,0.191512,0.21786,0.188615,0.252694,1.544871,0.22235,0.118774,0.029826,-0.005054,0.082937,-0.3986,-0.208826,-0.31182,'\'(-inf-6.266667]\''
-0.017374,-0.000865,-0.012571,0.090539,-0.069614,0.234209,0.397098,0.367742,0.544737,0.339568,0.644444,0.111738,0.064776,-0.110884,0.767939,0.266,0.530919,-0.007734,0.474251,-0.096115,-0.330684,0.326478,0.336955,'\'(14.9-27.8]\'',-0.09547,0.278118,-0.024064,0.122158,-0.08717,0.033658,0.365625,0.753138,-0.832519,0.119815,0.591864,0.53822,0.649785,0.316531,0.518185,0.59062,0.587171,0.367347,0.401654,0.358399,1.36105,0.234455,0.225428,-0.422324,0.502761,0.044192,0.52014,0.239893,-0.412156,0.893218,0.208047,-0.013275,0.296903,0.122347,-0.148131,0.064347,-0.082515,-0.269931,-0.314598,-0.380091,-0.439691,-0.516094,-0.50596,-0.17187,-0.326358,-0.316424,-1.406497,-0.27365,-0.551735,-0.11702,0.125031,0.146119,0.19012,0.183579,0.21342,0.277772,0.260976,0.280472,0.154021,0.336835,0.304503,0.19181,0.158405,-0.002,-0.685746,-0.850242,-0.686347,0.732847,0.152702,0.066969,0.105224,-0.096449,-0.330761,0.115027,0.18548,0.967446,0.24061,0.041368,0.348861,1.119351,0.104046,0.197407,0.225622,0.194809,0.258982,1.525879,0.236581,0.123958,0.048228,0.000408,0.108911,-0.384039,-0.202853,-0.310927,'\'(-inf-6.266667]\''
-0.009358,0.009316,-0.010201,0.107394,-0.059879,0.255123,0.417494,0.383083,0.552236,0.352377,0.648222,0.134821,0.085425,-0.093672,0.798584,0.287652,0.534667,-0.015972,0.51196,-0.17434,-0.390056,0.334533,0.345174,'\'(14.9-27.8]\'',0.227302,0.268031,-0.052925,0.01324,-0.078085,-0.035313,0.376293,0.773829,-0.829591,0.135173,0.599237,0.553227,0.645822,0.325849,0.535772,0.602221,0.609158,0.378097,0.404748,0.358399,1.502183,0.424169,0.193955,-0.600208,0.573468,0.28653,0.051618,0.224051,-0.507515,0.671144,0.342299,-0.084621,0.386763,0.293807,-0.136352,0.065562,-0.16448,-0.271631,-0.312596,-0.378266,-0.439922,-0.518549,-0.508452,-0.166396,-0.325058,-0.311507,-1.398684,-0.262698,-0.585046,-0.074346,0.13058,0.146119,0.212633,0.202943,0.243654,0.336119,0.340172,0.325226,0.191817,0.443081,0.424886,0.323573,0.211242,0.043131,-0.656977,-0.858732,-0.687916,0.780793,0.152702,0.068391,0.112728,-0.091134,-0.408746,0.158459,0.189006,0.967446,0.248958,0.044778,0.35055,1.119351,0.109408,0.203302,0.230797,0.198525,0.262615,1.503176,0.238582,0.129514,0.050682,0.003685,0.111646,-0.377503,-0.186277,-0.308533,'\'(-inf-6.266667]\''
0.003038,0.024256,-0.008087,0.096871,-0.068674,0.27579,0.441107,0.407526,0.580174,0.408328,0.657153,0.160128,0.102446,-0.074491,0.806047,0.312712,0.486733,0.000598,0.567236,0.027875,-0.163605,0.33547,0.356945,'\'(14.9-27.8]\'',-0.065253,0.058453,-0.079565,-0.087168,-0.069757,-0.046067,0.384941,0.794027,-0.820074,0.15821,0.600876,0.562094,0.636906,0.333183,0.545445,0.615891,0.616715,0.388379,0.404527,0.489291,1.502183,0.487407,0.09691,-0.52609,0.230036,0.137823,0.226165,0.150123,-0.618768,0.589328,0.227936,-0.004357,0.387899,0.267182,-0.130932,0.066757,-0.246444,-0.271897,-0.310425,-0.376088,-0.437958,-0.518095,-0.508175,-0.160291,-0.323195,-0.305758,-1.387331,-0.257036,-0.598118,-0.050152,0.138903,0.175558,0.235145,0.244896,0.295053,0.40419,0.398708,0.358791,0.226176,0.629013,0.560317,0.411415,0.242944,0.078233,-0.653771,-0.832806,-0.636154,0.764178,0.15883,0.074076,0.106725,-0.123025,-0.435638,0.188319,0.192532,0.96104,0.247567,0.048187,0.352239,1.122409,0.112983,0.203302,0.233384,0.201003,0.262584,1.497644,0.229465,0.132406,0.058043,0.01024,0.117114,-0.384915,-0.161254,-0.309143,'\'(-inf-6.266667]\''
-0.000827,0.021852,-0.004212,0.114415,-0.061603,0.275834,0.442053,0.408883,0.559222,0.417117,0.617259,0.182268,0.101575,-0.067383,0.824088,0.32445,0.313805,-0.015681,0.551075,-0.106757,-0.321779,0.353798,0.368288,'\'(14.9-27.8]\'',0.099566,0.248979,-0.111755,-0.128012,-0.095498,-0.070382,0.3928,0.802894,-0.821538,0.172928,0.599237,0.56073,0.634924,0.340454,0.553535,0.620207,0.62518,0.398194,0.408727,0.358399,1.502183,0.424169,0.110024,-0.674326,0.755285,0.088254,-0.031063,0.205569,-0.539302,0.951658,0.113574,0.066988,0.376057,0.299062,-0.119914,0.072051,-0.16448,-0.272471,-0.307969,-0.373322,-0.435993,-0.518822,-0.509006,-0.156011,-0.325485,-0.300278,-1.341302,-0.276065,-0.50934,-0.135145,0.174971,0.187333,0.254441,0.261032,0.307147,0.387983,0.384935,0.336414,0.208997,0.509485,0.424886,0.304749,0.142554,-0.012029,-0.674527,-0.830519,-0.613802,0.782692,0.157298,0.072655,0.102223,-0.091134,-0.406393,-0.028843,0.196058,0.95143,0.242002,0.051597,0.352239,1.122409,0.118346,0.206839,0.234678,0.205958,0.267041,1.497239,0.231403,0.137562,0.06295,0.015702,0.123949,-0.371333,-0.152101,-0.309215,'\'(-inf-6.266667]\''
0.005179,0.030438,0.002065,0.122101,-0.061504,0.289968,0.44804,0.40696,0.546194,0.385496,0.616688,0.190802,0.123219,-0.045692,0.831914,0.336667,0.34803,0.031853,0.537456,-0.100372,-0.211376,0.346617,0.375686,'\'(14.9-27.8]\'',-0.142169,0.086472,-0.128405,-0.058237,-0.149253,-0.094697,0.39845,0.833438,-0.823002,0.191486,0.613164,0.581194,0.638887,0.344137,0.558283,0.634596,0.630748,0.405205,0.399222,0.489291,1.502183,0.487407,0.332964,-0.511266,0.775487,0.225946,0.400713,0.107878,-0.380369,0.647768,0.163297,-0.209475,0.302525,0.129225,-0.126479,0.075299,-0.16448,-0.274683,-0.306808,-0.372498,-0.435358,-0.519914,-0.510021,-0.152638,-0.320673,-0.296054,-1.329425,-0.261569,-0.547229,-0.073781,0.125031,0.154951,0.222281,0.20617,0.252725,0.306945,0.305739,0.265554,0.150585,0.509485,0.372219,0.273377,0.13727,-0.007014,-0.697846,-0.843642,-0.61988,0.79456,0.163426,0.079762,0.103723,-0.081833,-0.38488,-0.107564,0.198408,0.929006,0.242002,0.054439,0.352239,1.128523,0.122815,0.209197,0.237265,0.208436,0.269055,1.495519,0.227528,0.141313,0.066631,0.020071,0.126684,-0.374216,-0.146207,-0.311687,'\'(-inf-6.266667]\''
0.010499,0.038239,0.004403,0.128972,-0.04903,0.30753,0.473471,0.436394,0.586586,0.415234,0.663033,0.210675,0.132392,-0.032228,0.838989,0.357854,0.349489,0.009727,0.570899,0.019361,-0.141172,0.361011,0.387653,'\'(14.9-27.8]\'',-0.102337,0.116732,-0.154491,-0.051429,-0.187865,-0.043496,0.404826,0.841813,-0.833984,0.206844,0.611116,0.583922,0.629971,0.349961,0.56268,0.646288,0.636173,0.413618,0.413148,0.489291,1.643316,0.550645,0.117893,-0.422324,0.391651,0.198407,-0.012689,0.052431,-0.443942,0.542576,0.0191,-0.022194,0.397772,0.321939,-0.120163,0.076667,-0.246444,-0.275789,-0.305226,-0.373439,-0.434722,-0.52055,-0.510667,-0.139331,-0.316854,-0.294416,-1.347921,-0.252066,-0.56511,-0.037931,0.147226,0.184389,0.235145,0.241669,0.3011,0.375017,0.371162,0.340144,0.208997,0.615732,0.47003,0.342396,0.200675,0.038116,-0.672683,-0.823189,-0.60145,0.781268,0.164957,0.081183,0.111227,-0.116381,-0.316643,-0.117065,0.204285,0.95143,0.25035,0.057849,0.360684,1.134638,0.127283,0.215092,0.245027,0.21463,0.275038,1.493124,0.235691,0.146726,0.070311,0.026626,0.130785,-0.361698,-0.141635,-0.312179,'\'(-inf-6.266667]\''
0.010772,0.039736,0.009848,0.146614,-0.037048,0.306993,0.466439,0.423858,0.564971,0.355792,0.666976,0.206733,0.138253,-0.030608,0.857174,0.354983,0.36824,0.097875,0.476171,-0.0876,-0.237537,0.373687,0.399292,'\'(14.9-27.8]\'',-0.168265,0.25122,-0.12785,0.081314,-0.210578,-0.06103,0.41319,0.866445,-0.828859,0.227961,0.61808,0.593472,0.632943,0.356729,0.575694,0.663554,0.652053,0.419694,0.410274,0.489291,1.502183,0.424169,-0.099802,-0.555737,0.129027,-0.225684,0.253726,-0.03734,-0.459836,0.565952,-0.065428,-0.18272,0.395711,0.311583,-0.10461,0.08077,-0.246444,-0.277939,-0.301962,-0.370673,-0.434433,-0.521824,-0.511958,-0.130215,-0.31213,-0.292657,-1.351275,-0.231363,-0.627342,0.046075,0.13058,0.157895,0.202984,0.199715,0.216443,0.268047,0.267863,0.239447,0.11279,0.323554,0.266883,0.19181,0.089717,-0.072203,-0.65321,-0.798614,-0.548511,0.69297,0.175681,0.093976,0.109726,-0.127011,-0.286054,-0.148282,0.210161,0.95143,0.254523,0.061259,0.369129,1.131581,0.130859,0.218629,0.251495,0.219585,0.281448,1.491673,0.244904,0.152397,0.070311,0.027718,0.128051,-0.36401,-0.143426,-0.312243,'\'(-inf-6.266667]\''
0.016781,0.047095,0.014428,0.163417,-0.038924,0.332219,0.499737,0.459071,0.611588,0.393524,0.718204,0.23385,0.154621,-0.01302,0.871148,0.379421,0.506051,0.11406,0.524068,0.090136,-0.150644,0.376373,0.39538,'\'(14.9-27.8]\'',0.440193,0.108887,-0.188346,-0.039517,-0.239348,-0.073188,0.42209,0.885165,-0.803236,0.243959,0.621766,0.602339,0.62898,0.364409,0.581498,0.672278,0.65657,0.428107,0.412706,0.489291,1.643316,0.487407,0.154612,-0.629855,0.664376,0.170869,0.042431,0.105237,-0.491622,0.659456,0.208047,-0.245147,0.46033,0.269423,-0.08726,0.081189,-0.328409,-0.27839,-0.298209,-0.366788,-0.431834,-0.521733,-0.511774,-0.122576,-0.308269,-0.288953,-1.348688,-0.204717,-0.70356,0.150728,0.150001,0.152007,0.215849,0.186807,0.177138,0.170802,0.154234,0.131292,0.016583,0.057938,-0.011502,-0.059168,-0.100496,-0.24771,-0.639908,-0.799768,-0.399499,0.632681,0.177213,0.096819,0.106725,-0.076518,-0.326055,-0.123852,0.216038,0.96104,0.264262,0.065237,0.379263,1.128523,0.135327,0.224524,0.257964,0.225779,0.285233,1.476223,0.252496,0.156091,0.075218,0.029903,0.134886,-0.364595,-0.137945,-0.311027,'\'(-inf-6.266667]\''
0.024074,0.055951,0.021762,0.146937,-0.036191,0.34998,0.516967,0.478696,0.620111,0.43298,0.705897,0.26617,0.172281,0.004831,0.930738,0.403086,0.463777,0.074408,0.566134,0.068851,-0.170839,0.379682,0.398306,'\'(14.9-27.8]\'',0.029518,0.344242,-0.207771,-0.112696,-0.233291,0.006771,0.428276,0.892555,-0.80104,0.248438,0.624634,0.610525,0.624026,0.370107,0.588181,0.675515,0.671256,0.434651,0.414032,0.554737,1.643316,0.613883,-0.157504,-0.348206,0.219935,0.077238,-0.664946,0.102597,-0.459836,0.612704,0.173241,-0.173802,0.361346,0.185528,-0.089398,0.081757,-0.328409,-0.278841,-0.294255,-0.361667,-0.427212,-0.520368,-0.51039,-0.11441,-0.301601,-0.288022,-1.369506,-0.198812,-0.712145,0.162585,0.144452,0.181445,0.177256,0.177125,0.192255,0.203217,0.188667,0.168587,0.050942,0.150903,0.078785,0.016125,-0.037092,-0.187536,-0.596794,-0.783078,-0.396362,0.747088,0.183341,0.103926,0.115729,0.013838,-0.269583,-0.036987,0.220739,0.97065,0.279567,0.066373,0.38433,1.131581,0.138902,0.230419,0.264432,0.230734,0.287705,1.450451,0.259961,0.158869,0.083806,0.034272,0.144456,-0.368177,-0.126138,-0.313116,'\'(-inf-6.266667]\''
0.034985,0.064537,0.030538,0.176235,-0.023471,0.355025,0.517934,0.477317,0.610321,0.415054,0.701878,0.27659,0.181175,0.012438,0.929712,0.406895,0.428048,0.050165,0.505204,0.047033,-0.164371,0.390392,0.412707,'\'(14.9-27.8]\'',0.217687,0.122336,-0.186681,-0.041218,-0.23632,-0.06103,0.435031,0.901915,-0.778346,0.248438,0.629959,0.620757,0.622045,0.376245,0.589412,0.678303,0.661285,0.441661,0.418895,0.227507,1.643316,0.424169,-0.196846,-0.185147,-0.244708,-0.25873,0.079178,0.026028,-0.173757,0.449071,-0.020678,-0.120293,0.355431,0.246198,-0.090624,0.085007,-0.328409,-0.278861,-0.291563,-0.358429,-0.428656,-0.520914,-0.510759,-0.109741,-0.297677,-0.286201,-1.394331,-0.180921,-0.758785,0.209857,0.133354,0.125513,0.215849,0.196488,0.234584,0.287496,0.285079,0.250636,0.119662,0.389958,0.304503,0.216907,0.100285,-0.067188,-0.546869,-0.744141,-0.406949,0.686324,0.184873,0.105347,0.118731,0.080276,-0.276978,0.022733,0.224265,0.983463,0.278175,0.069783,0.386019,1.125466,0.144265,0.235135,0.267019,0.234451,0.290483,1.44836,0.262343,0.161876,0.08994,0.052843,0.149924,-0.364977,-0.11925,-0.309349,'\'(-inf-6.266667]\''
0.04098,0.074105,0.034477,0.223219,-0.015826,0.388778,0.550169,0.505264,0.63322,0.461826,0.70805,0.307255,0.215257,0.049011,0.977052,0.445723,0.416123,0.069648,0.622743,0.141222,-0.077997,0.388643,0.412707,'\'(14.9-27.8]\'',-0.069374,0.276997,-0.198891,-0.008884,-0.267361,-0.146367,0.445036,0.934429,-0.75858,0.278514,0.637332,0.632353,0.623035,0.384146,0.593985,0.693861,0.661938,0.450074,0.42,0.489291,1.784449,0.550645,0.146744,-0.629855,0.866395,0.005638,0.106738,0.192368,0.032855,0.519199,0.073796,0.102661,0.453748,0.404249,-0.084591,0.089029,-0.492339,-0.279353,-0.289594,-0.356722,-0.430158,-0.523188,-0.513158,-0.101133,-0.294753,-0.284133,-1.406958,-0.155863,-0.821931,0.282688,0.116707,0.113737,0.209417,0.183579,0.210396,0.245357,0.229986,0.209612,0.068122,0.363396,0.251836,0.154163,0.073866,-0.112319,-0.496543,-0.694129,-0.471456,0.715757,0.180277,0.09824,0.11723,-0.064559,-0.376477,0.056665,0.227791,1.005887,0.27261,0.072057,0.391086,1.128523,0.146946,0.238672,0.269607,0.238167,0.29494,1.454769,0.264218,0.16663,0.093621,0.05612,0.151291,-0.360849,-0.118844,-0.308455,'\'(-inf-6.266667]\''
0.049997,0.083844,0.039474,0.22429,-0.007454,0.407068,0.575501,0.534873,0.661888,0.498214,0.730687,0.335152,0.225952,0.066874,0.991962,0.473065,0.242274,0.113906,0.678197,0.119937,-0.067869,0.403974,0.432204,'\'(14.9-27.8]\'',0.003422,0.238892,-0.215541,-0.041218,-0.275689,-0.152679,0.455041,0.961524,-0.75858,0.297072,0.647572,0.649406,0.623035,0.392394,0.603833,0.707081,0.670489,0.459422,0.42221,0.685629,1.925582,0.677121,0.070682,-0.318559,0.250238,-0.005377,0.226165,0.168605,-0.28501,0.507511,0.262742,-0.129211,0.422674,0.359925,-0.086771,0.090243,-0.574303,-0.280643,-0.287087,-0.352131,-0.428772,-0.523643,-0.513712,-0.093214,-0.287488,-0.28224,-1.42394,-0.160716,-0.803051,0.228449,0.172196,0.154951,0.251225,0.248123,0.29203,0.355568,0.322955,0.299119,0.150585,0.456362,0.357171,0.198084,0.095001,-0.092261,-0.48909,-0.695993,-0.502827,0.795984,0.178745,0.09824,0.111227,-0.185477,-0.417486,0.090596,0.228966,0.986667,0.269828,0.076603,0.386019,1.131581,0.150521,0.239851,0.269607,0.239406,0.297198,1.455376,0.257896,0.171213,0.096075,0.052843,0.155393,-0.367459,-0.109318,-0.300441,'\'(-inf-6.266667]\''
0.051417,0.087008,0.039378,0.232138,-0.024511,0.409478,0.569059,0.523058,0.621055,0.426713,0.712088,0.351715,0.23706,0.077761,1.003452,0.470672,0.413978,0.082734,0.579717,0.098651,-0.050689,0.407877,0.440489,'\'(14.9-27.8]\'',-0.220458,0.089834,-0.178911,0.05919,-0.270389,-0.117142,0.464415,0.975318,-0.739546,0.305391,0.652078,0.661002,0.617091,0.400861,0.610516,0.719582,0.674409,0.473444,0.421105,0.685629,1.925582,0.677121,0.162481,-0.377854,0.169431,0.352623,0.060805,0.129,-0.666448,0.647768,0.25777,-0.147048,0.498642,0.423996,-0.081986,0.095453,-0.492339,-0.282404,-0.284428,-0.347245,-0.426923,-0.52337,-0.513527,-0.083049,-0.280266,-0.272988,-1.358745,-0.182705,-0.737566,0.105417,0.20549,0.20794,0.257657,0.283623,0.349476,0.426881,0.391821,0.36625,0.205561,0.549328,0.43241,0.24828,0.126703,-0.072203,-0.490372,-0.667629,-0.464201,0.898998,0.166489,0.084026,0.103723,-0.18149,-0.460176,0.079738,0.230141,1.005887,0.260089,0.079445,0.382641,1.122409,0.154096,0.24103,0.269607,0.240645,0.299305,1.416347,0.261422,0.175595,0.098528,0.059398,0.155393,-0.382402,-0.092982,-0.290652,'\'(-inf-6.266667]\''
0.060184,0.098367,0.040531,0.231559,-0.025316,0.42594,0.591914,0.547599,0.651805,0.456632,0.742484,0.37365,0.246622,0.09587,0.998923,0.491341,0.460387,0.177032,0.595932,-0.038643,-0.102513,0.411093,0.451043,'\'(14.9-27.8]\'',-0.09959,-0.054741,-0.209436,0.057488,-0.311273,-0.132105,0.473,0.996994,-0.722708,0.323948,0.657403,0.671916,0.614119,0.408038,0.615793,0.729474,0.67813,0.483259,0.420663,0.620183,1.925582,0.613883,0.031339,-0.703973,0.371449,-0.010885,0.226165,0.110518,-0.618768,0.378943,0.118546,0.218597,0.434597,0.354361,-0.081618,0.10098,-0.410374,-0.282425,-0.282375,-0.342713,-0.426056,-0.525098,-0.515188,-0.07626,-0.273803,-0.271167,-1.367225,-0.128835,-0.878001,0.29726,0.202715,0.20794,0.222281,0.261032,0.313194,0.365292,0.329842,0.310308,0.157457,0.403239,0.296979,0.141614,0.052731,-0.137391,-0.513372,-0.731464,-0.458515,0.833487,0.161894,0.078341,0.100722,-0.164216,-0.422864,0.086524,0.230141,1.015497,0.246176,0.082854,0.379263,1.122409,0.156777,0.24103,0.268313,0.240645,0.298328,1.401841,0.254434,0.177256,0.104662,0.065952,0.160861,-0.367145,-0.084564,-0.293027,'\'(-inf-6.266667]\''
0.067221,0.106634,0.049787,0.26328,-0.01245,0.439541,0.602566,0.559943,0.648274,0.510922,0.699582,0.405217,0.262721,0.11525,0.987228,0.509753,0.269187,0.171728,0.596536,0.173683,0.029989,0.413966,0.449334,'\'(14.9-27.8]\'',-0.051518,0.073023,-0.229416,-0.046324,-0.292345,-0.124156,0.48108,1.008325,-0.71978,0.323948,0.666825,0.690333,0.610156,0.415373,0.622124,0.740356,0.681937,0.49027,0.433704,0.489291,1.643316,0.550645,0.167726,-0.822562,0.320945,0.374653,0.180232,0.078834,-0.475729,0.519199,0.14838,-0.129211,0.507708,0.504567,-0.077846,0.110288,-0.410374,-0.281954,-0.279548,-0.33924,-0.424439,-0.524552,-0.514727,-0.071282,-0.267163,-0.268313,-1.372186,-0.095186,-0.953228,0.399614,0.219362,0.196165,0.183688,0.20617,0.258772,0.303704,0.25409,0.246906,0.09561,0.084499,0.108881,-0.03407,-0.068794,-0.257739,-0.505919,-0.78006,-0.433615,0.852001,0.15883,0.074076,0.100722,-0.202751,-0.478664,0.116384,0.233667,1.00909,0.25035,0.084559,0.380952,1.113237,0.161246,0.244567,0.272194,0.244361,0.301075,1.391181,0.247763,0.183356,0.107116,0.070321,0.162228,-0.351902,-0.067924,-0.289739,'\'(-inf-6.266667]\''
0.075968,0.117354,0.06737,0.287465,0.001931,0.464319,0.627905,0.586312,0.6859,0.512065,0.76105,0.417334,0.286137,0.128923,1.038489,0.53199,0.36391,0.05537,0.612627,0.094394,0.006877,0.422271,0.462814,'\'(14.9-27.8]\'',-0.271277,-0.017757,-0.210546,0.008135,-0.290831,-0.148705,0.490485,1.021626,-0.700746,0.339306,0.667234,0.703293,0.592323,0.423904,0.628279,0.757353,0.685999,0.507096,0.439451,0.554737,1.784449,0.550645,0.018225,-0.333383,0.27044,0.077238,-0.104556,0.179166,-0.555195,0.355567,0.317438,0.075906,0.554934,0.572154,-0.072822,0.112344,-0.492339,-0.282077,-0.276536,-0.334472,-0.422532,-0.524734,-0.515004,-0.067615,-0.263281,-0.267765,-1.396629,-0.05702,-1.028258,0.518608,0.208264,0.181445,0.222281,0.202943,0.21342,0.219425,0.16112,0.14621,0.002839,-0.06159,-0.056646,-0.178382,-0.190319,-0.373073,-0.473864,-0.769263,-0.385578,0.81972,0.152702,0.068391,0.096219,-0.202751,-0.463202,0.052593,0.236018,1.015497,0.246176,0.086264,0.379263,1.101008,0.165715,0.246925,0.272194,0.2456,0.302357,1.379847,0.247,0.185962,0.108343,0.070321,0.164962,-0.340294,-0.064825,-0.284285,'\'(-inf-6.266667]\''
0.087554,0.131166,0.0789,0.280628,0.002637,0.494516,0.660899,0.625527,0.721907,0.57353,0.778571,0.461892,0.312564,0.159863,1.048787,0.568259,0.321997,0.12182,0.693789,0.132176,0.051832,0.426673,0.468995,'\'(14.9-27.8]\'',-0.102337,0.011382,-0.274372,-0.182471,-0.293102,-0.102179,0.489601,1.066949,-0.714656,0.357864,0.69386,0.742856,0.599258,0.420126,0.608934,0.767155,0.694209,0.518781,0.424199,0.554737,1.925582,0.613883,-0.105047,-0.748444,0.098724,-0.032915,0.060805,0.202929,-0.475729,0.612704,0.158324,0.20076,0.536685,0.578453,-0.066203,0.115434,-0.492339,-0.28007,-0.270899,-0.32576,-0.421839,-0.524461,-0.514911,-0.060328,-0.259953,-0.266024,-1.420682,-0.055501,-1.025936,0.491896,0.213813,0.178502,0.251225,0.225533,0.219466,0.232391,0.188667,0.176046,0.026891,-0.06159,-0.041598,-0.140736,-0.158617,-0.348,-0.449503,-0.743972,-0.514787,0.881433,0.160362,0.076919,0.099221,-0.194778,-0.453117,0.062094,0.240719,0.996277,0.257306,0.088538,0.387708,1.091836,0.167502,0.250462,0.276075,0.250556,0.304066,1.366219,0.253195,0.187423,0.116931,0.079061,0.174532,-0.337194,-0.062704,-0.286099,'\'(-inf-6.266667]\''
0.093486,0.138427,0.079284,0.300073,0.009895,0.522281,0.687187,0.649124,0.753269,0.595938,0.815097,0.479007,0.340945,0.183056,1.092254,0.595381,0.329394,0.102123,0.724761,0.259891,0.14265,0.428453,0.469291,'\'(14.9-27.8]\'',-0.172386,-0.008791,-0.235521,-0.06164,-0.293859,-0.172084,0.505035,1.088133,-0.696354,0.375781,0.698775,0.751042,0.599258,0.434165,0.643052,0.77372,0.696595,0.529063,0.437903,0.620183,1.925582,0.613883,0.304113,-0.229618,0.432055,0.402192,0.143485,0.321743,-0.523409,0.554264,0.297548,0.423714,0.542928,0.568908,-0.059397,0.123598,-0.492339,-0.28179,-0.268257,-0.323641,-0.421203,-0.525007,-0.515373,-0.051091,-0.253385,-0.26313,-1.428288,-0.047883,-1.035714,0.489549,0.213813,0.181445,0.19012,0.193261,0.207373,0.216183,0.157677,0.14994,-0.014341,-0.114713,-0.079218,-0.197206,-0.195602,-0.408174,-0.483641,-0.714651,-0.519101,0.865768,0.163426,0.081183,0.102223,-0.173518,-0.457823,0.045806,0.24542,1.002684,0.267045,0.090811,0.392775,1.085721,0.171971,0.256357,0.282543,0.255511,0.309255,1.360653,0.259072,0.192807,0.119384,0.085615,0.174532,-0.33401,-0.055732,-0.277299,'\'(-inf-6.266667]\''
0.103821,0.151552,0.089052,0.293052,0.008803,0.549406,0.731006,0.695489,0.818178,0.63415,0.896084,0.508402,0.350318,0.207312,1.081816,0.622982,0.555647,0.096342,0.753812,0.209869,0.164635,0.427142,0.474551,'\'(14.9-27.8]\'',-0.046024,-0.161211,-0.304342,-0.204595,-0.324144,-0.196633,0.516051,1.117199,-0.688301,0.381541,0.718846,0.781055,0.604211,0.443294,0.655187,0.792156,0.707759,0.543085,0.450945,0.554737,2.066715,0.677121,0.23592,-0.792915,0.512862,0.314069,0.327219,0.334945,-0.586982,0.472447,0.411911,0.361287,0.54253,0.611802,-0.051675,0.128177,-0.410374,-0.282056,-0.265027,-0.319344,-0.419875,-0.525462,-0.515557,-0.046217,-0.25003,-0.259042,-1.432928,-0.03687,-1.051829,0.50202,0.202715,0.193221,0.196552,0.193261,0.189232,0.157836,0.095698,0.093997,-0.059008,-0.141275,-0.184553,-0.285048,-0.253723,-0.453305,-0.498546,-0.712962,-0.456947,0.864343,0.168021,0.086869,0.100722,-0.10708,-0.40841,-0.017985,0.248946,0.996277,0.265654,0.094221,0.392775,1.085721,0.17644,0.259894,0.285131,0.259227,0.312064,1.359404,0.259008,0.196473,0.131653,0.092169,0.190937,-0.343568,-0.051399,-0.271619,'\'(-inf-6.266667]\''
0.117954,0.168846,0.096931,0.318771,0.005761,0.573884,0.749676,0.716942,0.826651,0.707673,0.860918,0.546206,0.379933,0.244072,1.103132,0.652656,0.550374,-0.011048,0.789371,0.368448,0.350329,0.437383,0.490136,'\'(14.9-27.8]\'',-0.165518,-0.092846,-0.378158,-0.267563,-0.396826,-0.175124,0.525582,1.144786,-0.700746,0.391779,0.736051,0.809704,0.604211,0.451038,0.665036,0.799261,0.720031,0.555704,0.456028,0.489291,2.066715,0.677121,0.209692,0.022384,0.017917,0.126808,0.49258,0.255735,-0.475729,0.472447,0.287604,0.254269,0.699316,1.018097,-0.021296,0.132156,-0.492339,-0.280971,-0.261241,-0.312928,-0.415888,-0.524643,-0.514727,-0.038701,-0.247691,-0.258761,-1.470897,-0.046403,-1.028029,0.452,0.208264,0.219715,0.251225,0.219079,0.189232,0.115697,0.044048,0.045514,-0.110548,-0.167836,-0.297412,-0.391713,-0.332978,-0.538551,-0.534367,-0.670165,-0.347344,0.987295,0.163426,0.082605,0.103723,-0.075189,-0.44505,-0.047845,0.251297,0.996277,0.254523,0.098767,0.391086,1.076549,0.180909,0.261073,0.286424,0.261705,0.312186,1.336736,0.255291,0.199279,0.135333,0.097631,0.195038,-0.342282,-0.044286,-0.257483,'\'(-inf-6.266667]\''
0.130179,0.182462,0.107949,0.312618,0.013694,0.587097,0.757231,0.718767,0.813245,0.700287,0.843925,0.560091,0.398508,0.258429,1.14386,0.668253,0.498205,0.052484,0.75463,0.198694,0.148127,0.44344,0.490991,'\'(14.9-27.8]\'',-0.089976,-0.193713,-0.331537,-0.202893,-0.361999,-0.181436,0.535777,1.180749,-0.68098,0.416736,0.748749,0.83085,0.604211,0.458907,0.672247,0.807714,0.731081,0.569726,0.457133,0.685629,2.066715,0.803597,0.35657,-0.540913,0.603771,0.352623,0.446647,0.221411,-0.348583,0.589328,0.133463,0.254269,0.495316,0.438526,-0.030392,0.138904,-0.410374,-0.280684,-0.258195,-0.307277,-0.410977,-0.52337,-0.513527,-0.032161,-0.246244,-0.252212,-1.453115,-0.028138,-1.058034,0.516055,0.202715,0.237378,0.257657,0.241669,0.210396,0.105973,0.019945,0.004489,-0.144907,-0.048309,-0.304936,-0.423085,-0.380532,-0.578667,-0.508403,-0.627058,-0.404596,1.05518,0.160362,0.079762,0.100722,-0.168203,-0.507237,-0.096706,0.252472,1.005887,0.251741,0.103882,0.391086,1.073492,0.18359,0.263431,0.285131,0.261705,0.311728,1.325671,0.252274,0.200339,0.142694,0.107463,0.200507,-0.337369,-0.025211,-0.252827,'\'(-inf-6.266667]\''
0.148099,0.203878,0.106219,0.31735,0.017446,0.600879,0.776444,0.743373,0.831728,0.713131,0.865664,0.588427,0.406265,0.272641,1.13817,0.691726,0.23574,0.038987,0.756799,0.29927,0.26954,0.441567,0.492536,'\'(14.9-27.8]\'',-0.017181,-0.202678,-0.369277,-0.337338,-0.353671,-0.144262,0.543888,1.218682,-0.668535,0.445532,0.761857,0.85677,0.598267,0.464574,0.676468,0.827499,0.726223,0.581411,0.458018,0.554737,2.066715,0.740359,0.249034,-0.318559,0.724982,0.005638,0.400713,0.482802,0.032855,0.928282,0.302521,0.361287,0.501383,0.511484,-0.028571,0.143406,-0.328409,-0.280336,-0.254274,-0.300626,-0.412075,-0.523734,-0.513804,-0.019112,-0.244063,-0.254656,-1.524135,-0.027367,-1.054931,0.511757,0.219362,0.160839,0.219065,0.173898,0.122715,-0.00748,-0.073024,-0.051453,-0.189575,-0.513138,-0.613417,-0.630142,-0.491489,-0.673943,-0.479955,-0.628907,-0.453025,1.120691,0.149638,0.065548,0.088716,-0.247929,-0.561356,-0.148282,0.254823,1.00909,0.242002,0.105587,0.389397,1.076549,0.187165,0.263431,0.286424,0.264183,0.312796,1.315686,0.247699,0.20369,0.141467,0.109648,0.197773,-0.332485,-0.037684,-0.239749,'\'(-inf-6.266667]\''
0.162237,0.220461,0.118806,0.351636,0.016359,0.606438,0.784274,0.74773,0.827012,0.709066,0.860649,0.598637,0.409254,0.28238,1.112255,0.697306,0.277678,-0.032317,0.673467,0.370045,0.352435,0.442098,0.495199,'\'(14.9-27.8]\'',-0.037783,-0.215007,-0.382598,-0.313512,-0.382441,-0.154549,0.550548,1.229028,-0.666339,0.454491,0.765134,0.865638,0.593313,0.470554,0.679633,0.835503,0.724093,0.593095,0.461554,0.554737,1.925582,0.613883,0.403781,0.304032,1.038111,0.258992,-0.15049,0.725711,-0.014824,1.360741,0.541191,0.450469,0.583161,0.582511,-0.029728,0.152549,-0.410374,-0.279557,-0.248772,-0.288735,-0.413693,-0.525826,-0.515834,-0.010614,-0.236578,-0.251569,-1.536099,0.019664,-1.1342,0.68533,0.20549,0.163782,0.235145,0.186807,0.14388,0.015211,-0.062694,-0.029076,-0.168959,-0.353768,-0.52313,-0.579946,-0.433369,-0.618784,-0.489331,-0.665511,-0.441653,1.085087,0.148106,0.064127,0.082712,-0.274504,-0.583205,-0.175428,0.254823,1.005887,0.233654,0.109565,0.386019,1.079606,0.188953,0.263431,0.283837,0.264183,0.311667,1.299831,0.238963,0.205838,0.148828,0.112925,0.204608,-0.348602,-0.040884,-0.233881,'\'(-inf-6.266667]\''
0.174976,0.234984,0.127486,0.363899,0.022332,0.607748,0.788943,0.752061,0.830063,0.717022,0.86045,0.609549,0.406962,0.274885,1.087943,0.69239,0.417892,-0.006113,0.541936,0.350888,0.295157,0.445969,0.495429,'\'(-inf-14.9]\'',0.260265,-0.154487,-0.403133,-0.310108,-0.411968,-0.173253,0.555219,1.219668,-0.676588,0.436573,0.76923,0.875188,0.58935,0.475811,0.682623,0.845665,0.723212,0.609454,0.46288,0.423845,1.925582,0.487407,0.359193,-0.333383,0.38155,0.380161,0.483393,0.614818,-0.348583,0.694521,0.759971,0.379123,0.531813,0.495215,-0.041768,0.159763,-0.328409,-0.279742,-0.244498,-0.279494,-0.412191,-0.525462,-0.515465,-0.006004,-0.228139,-0.246029,-1.529288,0.061016,-1.196061,0.840357,0.199941,0.175558,0.215849,0.177125,0.168067,0.054109,-0.035147,-0.010429,-0.144907,-0.22096,-0.417795,-0.517202,-0.396383,-0.573653,-0.467694,-0.633514,-0.400283,1.005335,0.146574,0.062705,0.075209,-0.291778,-0.618164,-0.194429,0.254823,0.996277,0.221132,0.112975,0.379263,1.073492,0.193421,0.263431,0.282543,0.264183,0.312002,1.295041,0.225304,0.21042,0.152509,0.118387,0.210076,-0.331466,-0.036116,-0.222773,'\'(-inf-6.266667]\''
0.182766,0.244993,0.137959,0.367273,0.040727,0.618552,0.803582,0.767507,0.857202,0.726107,0.898596,0.614307,0.413343,0.282773,1.111657,0.706652,0.388152,-0.018379,0.503586,0.362063,0.484378,0.443284,0.508416,'\'(-inf-14.9]\'',0.039133,-0.215007,-0.567414,-0.752586,-0.438466,-0.191957,0.564088,1.257601,-0.705139,0.487767,0.76923,0.881327,0.580434,0.482233,0.688427,0.853219,0.72932,0.620204,0.468185,0.227507,1.643316,0.297693,0.288376,-0.555737,0.674477,0.258992,0.308846,0.46168,-0.491622,0.554264,0.476551,0.557486,0.579003,0.606315,-0.036515,0.162218,-0.328409,-0.279824,-0.24014,-0.271959,-0.4104,-0.524552,-0.514542,-0.008275,-0.22449,-0.238565,-1.500875,0.088566,-1.228735,0.94682,0.188843,0.172614,0.19012,0.183579,0.165044,0.054109,-0.038591,-0.021617,-0.141471,-0.181117,-0.387699,-0.498379,-0.391099,-0.54858,-0.455673,-0.607057,-0.379892,1.067997,0.149638,0.065548,0.073708,-0.277161,-0.604046,-0.169999,0.257173,0.983463,0.212785,0.11809,0.377574,1.076549,0.19789,0.265789,0.283837,0.265421,0.314689,1.297537,0.22613,0.213398,0.152509,0.121664,0.205975,-0.303473,-0.02847,-0.229038,'\'(-inf-6.266667]\''
0.192354,0.257333,0.152211,0.375785,0.043789,0.639011,0.823879,0.78266,0.872787,0.75045,0.908217,0.628812,0.43328,0.297706,1.102333,0.72353,0.430584,-0.053888,0.48042,0.373238,0.452434,0.450216,0.51223,'\'(-inf-14.9]\'',0.056988,-0.179143,-0.559644,-0.655581,-0.471779,-0.191022,0.576713,1.268439,-0.729297,0.512083,0.763905,0.881327,0.567554,0.494132,0.702145,0.863202,0.741904,0.632824,0.481226,0.423845,1.643316,0.487407,0.277885,-0.333383,0.209834,0.352623,0.400713,0.480162,-0.459836,0.752961,0.640636,0.15617,0.575712,0.61814,-0.035965,0.162591,-0.328409,-0.279291,-0.236068,-0.266897,-0.409764,-0.526008,-0.516111,0.006164,-0.224048,-0.235156,-1.508673,0.085621,-1.216578,0.940245,0.199941,0.178502,0.2062,0.209397,0.183185,0.060592,-0.035147,-0.021617,-0.151779,-0.154556,-0.402747,-0.517202,-0.412234,-0.583682,-0.476589,-0.575935,-0.446751,1.141104,0.146574,0.064127,0.072207,-0.290449,-0.623542,-0.217503,0.261875,0.996277,0.216959,0.123205,0.38433,1.067377,0.201465,0.271683,0.289012,0.271615,0.317649,1.260262,0.235946,0.217207,0.158643,0.124941,0.212811,-0.307925,-0.023804,-0.222783,'\'(-inf-6.266667]\''
0.204356,0.271267,0.165374,0.365783,0.055348,0.620291,0.80692,0.760673,0.82827,0.607739,0.926796,0.630998,0.413067,0.271021,1.109556,0.700461,0.567562,-0.044424,0.276776,0.323216,0.345493,0.452807,0.509567,'\'(-inf-14.9]\'',-0.073494,-0.034568,-0.491379,-0.361164,-0.509634,-0.065706,0.583972,1.27977,-0.743938,0.5396,0.756941,0.877916,0.555665,0.500648,0.707597,0.866799,0.7475,0.644976,0.48211,0.358399,1.502183,0.424169,0.553282,-0.451972,0.452257,0.710622,0.621194,0.472241,-0.253223,0.671144,0.461634,0.39696,0.476798,0.585602,-0.040216,0.162525,-0.246444,-0.279865,-0.232753,-0.2616,-0.408089,-0.525917,-0.516111,0.024848,-0.223295,-0.226722,-1.473238,0.085598,-1.208626,0.949435,0.219362,0.178502,0.199768,0.202943,0.174114,0.024935,-0.086797,-0.081289,-0.210191,-0.287364,-0.538178,-0.65524,-0.533759,-0.70403,-0.463847,-0.522111,-0.422831,1.237471,0.145042,0.062705,0.066204,-0.323668,-0.66388,-0.254149,0.264225,1.015497,0.219741,0.126614,0.386019,1.067377,0.204146,0.274041,0.290305,0.274093,0.315818,1.240663,0.236486,0.216148,0.157416,0.130403,0.208709,-0.302941,-0.002402,-0.226643,'\'(-inf-6.266667]\''
0.20811,0.277203,0.166655,0.351231,0.046694,0.607841,0.794974,0.737268,0.790257,0.489122,0.940214,0.617303,0.400262,0.260912,1.107491,0.687218,0.618327,-0.046392,0.127163,0.334391,0.338289,0.45696,0.512362,'\'(-inf-14.9]\'',-0.00894,-0.117502,-0.511359,-0.47859,-0.485407,-0.089086,0.588233,1.207352,-0.778346,0.566476,0.681571,0.764684,0.537832,0.509525,0.714631,0.86581,0.756136,0.660399,0.493383,0.358399,1.502183,0.424169,0.702783,-0.259265,0.391651,0.88136,0.795742,0.628019,-0.205543,0.659456,0.700304,0.477223,0.456535,0.530999,-0.043758,0.16463,-0.16448,-0.28011,-0.229438,-0.258185,-0.405604,-0.526371,-0.516572,0.03272,-0.220764,-0.219552,-1.443903,0.123134,-1.256187,1.103778,0.213813,0.178502,0.193336,0.173898,0.158997,0.005486,-0.10057,-0.07383,-0.203319,-0.327206,-0.568274,-0.667789,-0.512624,-0.683972,-0.448862,-0.517586,-0.435967,1.339061,0.149638,0.066969,0.064703,-0.319682,-0.649762,-0.285366,0.268926,1.021904,0.223915,0.130593,0.391086,1.076549,0.206828,0.277578,0.294186,0.27781,0.32116,1.244036,0.241187,0.221475,0.154962,0.140235,0.197773,-0.288248,0.008003,-0.224421,'\'(-inf-6.266667]\''
0.215985,0.287041,0.175783,0.378243,0.037502,0.672131,0.867499,0.827421,0.908611,0.818004,0.924321,0.684472,0.4539,0.339177,1.093594,0.76245,0.539303,-0.023045,0.387434,0.377495,0.405633,0.456398,0.514367,'\'(-inf-14.9]\'',-0.003446,-0.164573,-0.484164,-0.388393,-0.487678,-0.184476,0.598806,1.297012,-0.787863,0.593992,0.738918,0.864956,0.530897,0.514341,0.72149,0.870486,0.759829,0.665541,0.499793,0.423845,1.502183,0.424169,0.482465,-0.555737,0.432055,0.749176,0.391526,0.744193,-0.221437,0.612704,0.97378,0.423714,0.55696,0.632013,-0.041766,0.169207,-0.246444,-0.279947,-0.225248,-0.251122,-0.40416,-0.52628,-0.51648,0.040379,-0.217239,-0.217634,-1.458534,0.059294,-1.15805,0.873842,0.216588,0.178502,0.17404,0.14808,0.113645,-0.056102,-0.14189,-0.085018,-0.206755,-0.539699,-0.718752,-0.749356,-0.533759,-0.694001,-0.465129,-0.479034,-0.454594,1.565501,0.145042,0.062705,0.060201,-0.370175,-0.673964,-0.305725,0.271277,1.073158,0.222524,0.135139,0.392775,1.076549,0.210403,0.281115,0.296774,0.280287,0.324151,1.227304,0.244681,0.225599,0.168458,0.145697,0.214178,-0.261726,0.015375,-0.212862,'\'(-inf-6.266667]\''
0.22315,0.294572,0.190708,0.402092,0.05065,0.669196,0.856865,0.812373,0.880232,0.820857,0.876763,0.685715,0.459151,0.354603,1.053294,0.758968,0.53648,-0.112733,0.290786,0.26468,0.263076,0.478754,0.533963,'\'(-inf-14.9]\'',0.033639,-0.139917,-0.449753,-0.449659,-0.413482,-0.224689,0.605056,1.29652,-0.823002,0.600392,0.73646,0.862227,0.528915,0.520605,0.728701,0.877411,0.766391,0.674421,0.50554,0.227507,1.36105,0.360931,0.398535,-0.36303,0.411853,0.385669,0.602821,0.540889,-0.14197,0.729585,0.566052,0.334533,0.584942,0.628844,-0.040726,0.174743,-0.246444,-0.279127,-0.218686,-0.237995,-0.402023,-0.526735,-0.516849,0.050791,-0.215542,-0.211707,-1.430909,0.017249,-1.082843,0.727624,0.20549,0.125513,0.080775,0.04481,-0.037529,-0.266799,-0.324384,-0.129772,-0.223935,-1.150617,-1.177712,-1.056804,-0.576028,-0.699016,-0.539897,-0.58005,-0.360285,1.504737,0.145042,0.061284,0.054198,-0.399408,-0.620517,-0.297581,0.272452,1.00909,0.216959,0.139686,0.389397,1.061263,0.213978,0.281115,0.294186,0.280287,0.3229,1.21317,0.23998,0.226343,0.169684,0.139142,0.22238,-0.25299,0.030681,-0.209303,'\'(-inf-6.266667]\''
0.226944,0.299233,0.19753,0.423522,0.070853,0.690984,0.876272,0.834516,0.895035,0.875268,0.8665,0.711417,0.482796,0.384598,1.053552,0.785912,0.517619,-0.097674,0.335465,0.244991,0.252855,0.478535,0.53439,'\'(-inf-14.9]\'',0.306964,-0.225093,-0.508584,-0.533049,-0.457394,-0.193827,0.611494,1.290115,-0.854482,0.624068,0.718027,0.849949,0.502165,0.527436,0.731515,0.877411,0.76889,0.685171,0.509077,0.423845,1.502183,0.424169,0.747371,-0.036911,0.825991,1.046591,0.143485,0.915814,0.048749,0.951658,0.968807,0.602077,0.551033,0.516508,-0.052486,0.178747,-0.328409,-0.277878,-0.211921,-0.227282,-0.399712,-0.526826,-0.516941,0.074252,-0.2113,-0.207618,-1.423349,0.026463,-1.097335,0.77598,0.083414,0.057805,-0.128268,-0.142368,-0.215914,-0.409425,-0.420797,-0.140961,-0.193011,-1.349829,-1.177712,-0.956413,-0.359397,-0.433247,-0.590143,-0.71308,-0.336561,1.615821,0.152702,0.069812,0.052697,-0.366189,-0.639341,-0.309797,0.277154,0.996277,0.219741,0.143664,0.394464,1.055148,0.217553,0.284652,0.298067,0.285243,0.327661,1.205884,0.245285,0.231556,0.177045,0.154436,0.223747,-0.240626,0.037009,-0.196505,'\'(-inf-6.266667]\''
0.236919,0.310125,0.203039,0.434463,0.078263,0.688042,0.866781,0.818544,0.865402,0.867358,0.823712,0.712355,0.48686,0.401081,1.044547,0.790396,0.314089,-0.011147,0.280652,0.382816,0.440457,0.48172,0.543629,'\'(-inf-14.9]\'',-0.12294,-0.125348,-0.504144,-0.546664,-0.444523,-0.168577,0.620174,1.284696,-0.889621,0.649025,0.699185,0.829486,0.486314,0.536439,0.740484,0.885235,0.778208,0.693117,0.518581,0.358399,1.502183,0.424169,0.603115,-0.407501,0.522963,0.815268,0.529327,0.791719,0.048749,0.858154,0.610803,0.896376,0.596397,0.575825,-0.05815,0.184549,-0.328409,-0.276055,-0.205409,-0.215274,-0.396419,-0.526826,-0.516757,0.087814,-0.20081,-0.203812,-1.422411,0.11367,-1.230507,1.134159,0.016827,0.075468,0.016454,-0.022962,-0.091951,-0.292731,-0.317498,-0.126043,-0.138035,-0.486576,-0.726276,-0.617593,-0.211453,-0.232667,-0.551757,-0.720598,-0.401851,1.593035,0.15117,0.068391,0.049696,-0.370175,-0.691107,-0.339657,0.279504,0.996277,0.21835,0.146505,0.392775,1.058205,0.222022,0.28701,0.299361,0.28772,0.327753,1.193976,0.242426,0.233417,0.179499,0.157713,0.225114,-0.229202,0.044523,-0.182404,'\'(-inf-6.266667]\''
0.241887,0.314958,0.219661,0.45417,0.091578,0.700995,0.870786,0.819462,0.86694,0.891319,0.811229,0.716662,0.50906,0.430534,1.06692,0.808537,0.305038,0.038074,0.289684,0.332263,0.421148,0.48962,0.554216,'\'(-inf-14.9]\'',-0.017181,-0.340529,-0.521349,-0.476888,-0.499035,-0.168577,0.631915,1.313762,-0.905727,0.698299,0.692221,0.824711,0.476406,0.546291,0.752795,0.899264,0.790934,0.70153,0.526317,0.554737,1.502183,0.487407,0.949328,-0.111029,1.553259,0.661053,0.878422,0.976541,0.128215,1.769823,0.774888,0.486141,0.549827,0.426469,-0.071782,0.183087,-0.410374,-0.276034,-0.200529,-0.20774,-0.391739,-0.525826,-0.515834,0.084173,-0.19482,-0.201648,-1.425587,0.149204,-1.276853,1.29588,-0.02479,0.043085,0.010022,-0.029416,-0.094975,-0.321905,-0.379477,-0.196903,-0.175831,-0.300645,-0.681133,-0.636416,-0.232588,-0.212609,-0.571631,-0.752475,-0.382833,1.606801,0.15883,0.078341,0.03919,-0.415353,-0.743882,-0.384446,0.28303,0.973853,0.212785,0.149915,0.397842,1.052091,0.225597,0.291726,0.303242,0.291437,0.329951,1.174579,0.248875,0.235966,0.184406,0.163175,0.227849,-0.1984,0.052756,-0.180741,'\'(-inf-6.266667]\''
0.25014,0.321974,0.217932,0.450716,0.092252,0.714282,0.889764,0.840016,0.909788,0.890999,0.87996,0.716279,0.51568,0.435034,1.073575,0.816797,0.528211,0.121463,0.256614,0.503613,0.599941,0.501141,0.568189,'\'(-inf-14.9]\'',-0.188868,-0.130951,-0.559644,-0.444553,-0.566417,-0.120883,0.635198,1.287652,-0.976006,0.68486,0.683209,0.813115,0.471452,0.551233,0.756137,0.896566,0.797581,0.712747,0.527422,0.292953,1.502183,0.360931,0.833924,-0.288912,0.310844,1.068622,1.034596,0.950138,-0.062504,0.752961,1.043392,0.798277,0.644735,0.624632,-0.068056,0.185511,-0.410374,-0.2754,-0.195919,-0.200853,-0.390872,-0.52437,-0.514542,0.082718,-0.191103,-0.195673,-1.412155,0.194941,-1.327175,1.486938,-0.038662,-0.024623,-0.006058,-0.052006,-0.097998,-0.273282,-0.355374,-0.189444,-0.155215,-0.247521,-0.530654,-0.561123,-0.195602,-0.157449,-0.551437,-0.789921,-0.424007,1.493344,0.164957,0.085448,0.037689,-0.404723,-0.703881,-0.414306,0.286556,0.957836,0.211393,0.153325,0.402909,1.042919,0.227384,0.294084,0.308417,0.295153,0.333003,1.168676,0.258023,0.237828,0.185633,0.164267,0.23195,-0.197884,0.053665,-0.179963,'\'(-inf-6.266667]\''
0.258916,0.332596,0.227636,0.490533,0.108332,0.732991,0.906408,0.858611,0.928284,0.918824,0.892367,0.735129,0.536057,0.456892,1.105233,0.844984,0.331796,0.156302,0.31365,0.54991,0.585842,0.500017,0.562567,'\'(-inf-14.9]\'',-0.046024,-0.183626,-0.525789,-0.488801,-0.500549,-0.236379,0.648422,1.303909,-1.023591,0.730934,0.670102,0.80834,0.446684,0.563384,0.774427,0.91743,0.815393,0.716486,0.540684,0.358399,1.502183,0.424169,0.629343,0.081678,0.260339,1.151237,-0.003502,0.918454,0.080535,1.010098,1.033447,0.432632,0.633245,0.559982,-0.070849,0.192636,-0.492339,-0.275686,-0.192082,-0.192671,-0.391739,-0.525553,-0.515557,0.080416,-0.189687,-0.186635,-1.367091,0.193235,-1.319298,1.495107,-0.002594,-0.021679,0.026102,-0.016507,-0.040552,-0.172796,-0.258962,-0.129772,-0.120856,-0.167836,-0.395223,-0.467006,-0.179751,-0.172493,-0.5181,-0.756462,-0.467535,1.39033,0.157298,0.074076,0.031686,-0.431298,-0.719343,-0.440094,0.286556,0.935413,0.200263,0.157872,0.396153,1.027632,0.230065,0.292905,0.305829,0.293914,0.331782,1.15019,0.25078,0.239718,0.190541,0.164267,0.237418,-0.180639,0.059917,-0.183328,'\'(-inf-6.266667]\''
0.261361,0.333823,0.237501,0.486687,0.115339,0.739893,0.901739,0.852857,0.919191,0.911048,0.882529,0.73461,0.555366,0.475779,1.116347,0.844771,0.558607,0.12763,0.246854,0.436563,0.620424,0.492617,0.565559,'\'(-inf-14.9]\'',-0.173759,-0.229576,-0.569634,-0.473485,-0.566417,-0.230534,0.652083,1.276321,-1.042624,0.713657,0.659042,0.806294,0.422906,0.568798,0.780758,0.922017,0.82167,0.720225,0.545989,0.162061,1.502183,0.360931,0.734256,-0.185147,0.80579,0.958468,0.354779,0.773237,-0.062504,1.091915,0.725165,0.512896,0.623207,0.537839,-0.068877,0.201714,-0.410374,-0.275707,-0.190938,-0.191199,-0.389081,-0.527645,-0.517587,0.091036,-0.186174,-0.177541,-1.312617,0.22056,-1.345131,1.608315,0.011278,-0.015791,0.026102,-0.006826,-0.016365,-0.098242,-0.179766,-0.047724,-0.072752,-0.127994,-0.259792,-0.354067,-0.089928,-0.127362,-0.487007,-0.728685,-0.479887,1.484799,0.161894,0.081183,0.036189,-0.423326,-0.630265,-0.459096,0.287731,0.922599,0.210002,0.161281,0.396153,1.01846,0.234534,0.295263,0.307123,0.296392,0.33343,1.132109,0.250939,0.243212,0.196675,0.173006,0.245621,-0.180554,0.066866,-0.177817,'\'(-inf-6.266667]\''
0.255203,0.329383,0.249895,0.482336,0.125483,0.747136,0.903454,0.852179,0.913451,0.94383,0.853352,0.746742,0.568399,0.497991,1.113688,0.856037,0.536665,0.213426,0.232968,0.417938,0.510128,0.499767,0.565822,'\'(-inf-14.9]\'',0.249277,-0.293458,-0.565194,-0.432641,-0.578531,-0.203647,0.663509,1.299475,-1.087281,0.76357,0.648801,0.799472,0.408045,0.578714,0.791311,0.928672,0.833999,0.726301,0.561241,0.292953,1.502183,0.360931,0.322473,-0.407501,0.745184,0.159854,0.43746,0.601616,-0.078397,0.986722,0.526274,0.379123,0.603342,0.555576,-0.073706,0.204657,-0.410374,-0.274683,-0.186092,-0.191494,-0.386655,-0.527281,-0.517403,0.094098,-0.183049,-0.17181,-1.282605,0.26192,-1.395205,1.75795,-0.008143,-0.027567,-0.022138,-0.039098,-0.043576,-0.117691,-0.196982,-0.040265,-0.089932,-0.154556,-0.252268,-0.341518,-0.042375,-0.117333,-0.462084,-0.72572,-0.504199,1.344757,0.171085,0.092555,0.048195,-0.400737,-0.540179,-0.43738,0.30066,0.964243,0.25035,0.165828,0.423177,1.01846,0.239003,0.309411,0.322647,0.30878,0.343961,1.138248,0.287661,0.246076,0.204036,0.177376,0.252456,-0.16318,0.071932,-0.177672,'\'(-inf-6.266667]\''
0.260056,0.334559,0.259504,0.520576,0.13457,0.767125,0.927983,0.881135,0.951574,0.975011,0.895234,0.771489,0.582795,0.515561,1.121562,0.881931,0.483619,0.218229,0.284368,0.464767,0.641367,0.504388,0.577527,'\'(-inf-14.9]\'',-0.121566,-0.359582,-0.551319,-0.424131,-0.563388,-0.235911,0.670358,1.309328,-1.131205,0.786607,0.644705,0.79879,0.399129,0.584915,0.800104,0.934427,0.84289,0.731443,0.559472,0.292953,1.502183,0.424169,0.474597,-0.333383,0.755285,0.347115,0.602821,0.707229,-0.173757,1.056851,0.585941,0.628832,0.638129,0.606972,-0.078844,0.210894,-0.574303,-0.274232,-0.181936,-0.183665,-0.383535,-0.52619,-0.516203,0.088185,-0.177957,-0.164587,-1.247841,0.259824,-1.398302,1.75833,-0.008143,-0.018735,0.045398,0.022219,0.0048,-0.000997,-0.073024,0.067891,-0.007469,0.057938,0.018594,-0.115638,0.110852,0.003015,-0.453509,-0.703662,-0.491455,1.216584,0.174149,0.095397,0.052697,-0.327654,-0.526397,-0.355944,0.301835,0.964243,0.247567,0.169238,0.421488,1.012346,0.24079,0.31059,0.322647,0.310019,0.345396,1.126104,0.284866,0.249684,0.215077,0.192669,0.260659,-0.172403,0.094614,-0.176589,'\'(-inf-6.266667]\''
0.267769,0.343071,0.268311,0.523275,0.139597,0.764978,0.909464,0.854813,0.910668,0.957466,0.840761,0.764613,0.598763,0.533921,1.147865,0.874253,0.535994,0.210997,0.190066,0.348759,0.468115,0.51132,0.57973,'\'(-inf-14.9]\'',-0.107831,-0.377514,-0.485274,-0.381586,-0.492221,-0.271448,0.678911,1.303417,-1.158292,0.806444,0.62873,0.787876,0.376342,0.593823,0.808898,0.941622,0.849935,0.738921,0.568977,0.358399,1.643316,0.360931,0.33821,-0.051734,0.80579,0.209423,0.134298,0.870928,0.064642,0.951658,0.834555,0.682341,0.598622,0.573893,-0.08641,0.213969,-0.574303,-0.275051,-0.178251,-0.175895,-0.381571,-0.528463,-0.51851,0.097334,-0.174543,-0.160035,-1.238044,0.252409,-1.395885,1.727717,-0.002594,0.043085,0.067911,0.106127,0.080387,0.118939,0.050935,0.179776,0.09561,0.363396,0.281931,0.097693,0.258795,0.143421,-0.429789,-0.71629,-0.531453,1.25646,0.175681,0.099662,0.0587,-0.324997,-0.521691,-0.389875,0.301835,0.964243,0.242002,0.173216,0.419799,1.015403,0.242578,0.311769,0.322647,0.310019,0.346067,1.114129,0.286041,0.251202,0.223665,0.200316,0.268862,-0.146037,0.112319,-0.169852,'\'(-inf-6.266667]\''
0.273065,0.349646,0.271866,0.526717,0.149704,0.784205,0.913234,0.852694,0.894695,0.966923,0.80977,0.780883,0.634657,0.579908,1.11671,0.887759,0.612242,0.267505,0.189266,0.39612,0.481862,0.514754,0.580913,'\'(-inf-14.9]\'',0.059735,-0.366306,-0.546879,-0.434342,-0.552789,-0.252745,0.689548,1.323122,-1.159756,0.821802,0.634464,0.802201,0.369407,0.603173,0.820329,0.953762,0.863372,0.747334,0.583786,0.358399,1.502183,0.424169,0.626721,0.140972,0.563367,0.495822,0.768182,0.818122,-0.14197,0.93997,0.874334,0.557486,0.674673,0.724447,-0.078405,0.221875,-0.574303,-0.275195,-0.17364,-0.172952,-0.378798,-0.5291,-0.519341,0.107972,-0.170537,-0.153877,-1.224102,0.297928,-1.436111,1.882639,0.061218,0.072524,0.061479,0.028674,0.059222,0.076799,0.013059,0.164858,0.071558,-0.035028,0.01107,-0.115638,0.116136,-0.007014,-0.421775,-0.730096,-0.570471,1.34903,0.180277,0.105347,0.070706,-0.321011,-0.448411,-0.298939,0.310062,0.957836,0.264262,0.178331,0.431622,1.01846,0.24794,0.318843,0.331703,0.317452,0.351897,1.111295,0.298144,0.255613,0.228572,0.203593,0.275697,-0.144446,0.124438,-0.167756,'\'(-inf-6.266667]\''
0.2829,0.360072,0.282884,0.547647,0.163191,0.798672,0.940318,0.888027,0.949874,1.04203,0.852582,0.796743,0.634704,0.580759,1.133475,0.908474,0.585399,0.27177,0.218833,0.41102,0.572598,0.514473,0.586733,'\'(-inf-14.9]\'',-0.073494,-0.320356,-0.579069,-0.490503,-0.572474,-0.286645,0.694313,1.320166,-1.15756,0.831401,0.625862,0.790605,0.365444,0.608115,0.825429,0.966083,0.865843,0.746399,0.591743,0.358399,1.643316,0.487407,0.571641,0.155796,0.644175,0.506838,0.474207,0.789078,-0.078397,1.021786,0.859417,0.388042,0.67855,0.730901,-0.079416,0.224646,-0.656268,-0.275174,-0.170729,-0.170715,-0.377296,-0.529009,-0.519248,0.120927,-0.161835,-0.146209,-1.207243,0.256257,-1.38887,1.688497,0.083414,0.113737,0.116151,0.122263,0.110621,0.128663,0.064708,0.243177,0.140277,0.084499,0.071261,-0.071717,0.184824,0.05316,-0.452307,-0.790547,-0.510278,1.368968,0.192532,0.119561,0.081212,-0.253244,-0.40841,-0.286723,0.314763,0.938616,0.282349,0.182877,0.440067,1.021517,0.251515,0.324738,0.336877,0.323646,0.355896,1.103536,0.308182,0.25862,0.231026,0.202501,0.279798,-0.113204,0.139043,-0.163831,'\'(-inf-6.266667]\''
0.2817,0.358821,0.293485,0.542802,0.169384,0.784968,0.921021,0.862384,0.915605,0.991659,0.828524,0.786056,0.627434,0.567395,1.14845,0.895042,0.555758,0.321051,0.101472,0.326941,0.462434,0.520468,0.590547,'\'(-inf-14.9]\'',0.015783,-0.308028,-0.582399,-0.50582,-0.570202,-0.29249,0.700626,1.329526,-1.172934,0.848679,0.623814,0.792651,0.357518,0.613812,0.835102,0.974087,0.873428,0.743127,0.598153,0.423845,1.643316,0.424169,0.537545,-0.496443,0.846193,0.628007,0.373153,0.472241,-0.269116,0.928282,0.436773,0.254269,0.672646,0.744464,-0.07455,0.232281,-0.656268,-0.275727,-0.16802,-0.171716,-0.374176,-0.529373,-0.519618,0.128388,-0.151196,-0.142082,-1.195931,0.248997,-1.375665,1.610272,0.125031,0.125513,0.103287,0.12549,0.125739,0.115697,0.057822,0.239447,0.157457,-0.048309,-0.071694,-0.178382,0.100285,0.003015,-0.438764,-0.853454,-0.473221,1.292539,0.207852,0.138039,0.088716,-0.200093,-0.320341,-0.247363,0.32299,0.948226,0.297653,0.187424,0.455268,1.024575,0.255984,0.33417,0.347227,0.332318,0.363802,1.096857,0.326607,0.26429,0.239614,0.21124,0.286634,-0.133188,0.150398,-0.160459,'\'(-inf-6.266667]\''
0.294459,0.374251,0.298161,0.566239,0.168271,0.827178,0.969292,0.914302,0.999669,1.100159,0.897482,0.804885,0.661915,0.607932,1.182876,0.943195,0.507776,0.34675,0.248311,0.441884,0.627657,0.525121,0.59995,'\'(-inf-14.9]\'',-0.087229,-0.294579,-0.588504,-0.550067,-0.558846,-0.288282,0.71344,1.339379,-1.169273,0.865956,0.620537,0.790605,0.352564,0.625963,0.844423,0.980742,0.883455,0.74266,0.609868,0.423845,1.643316,0.424169,0.466728,-0.466795,1.169423,0.418715,0.161858,0.730992,-0.396262,1.010098,0.884278,0.334533,0.738671,0.702073,-0.063667,0.240144,-0.656268,-0.274334,-0.163998,-0.166241,-0.369612,-0.529919,-0.520171,0.132242,-0.13931,-0.137501,-1.208223,0.234853,-1.359906,1.510094,0.119482,0.305086,0.161176,0.157762,0.180161,0.190251,0.123244,0.299119,0.219305,0.217307,0.116405,-0.046619,0.195391,0.103305,-0.468094,-0.862468,-0.409498,1.294912,0.20632,0.135196,0.093218,-0.234641,-0.362022,-0.224289,0.326516,0.954633,0.306001,0.190834,0.458646,1.024575,0.259559,0.337707,0.352401,0.336034,0.367526,1.088053,0.329021,0.269188,0.242067,0.219979,0.286634,-0.125791,0.156111,-0.155166,'\'(-inf-6.266667]\''
0.309326,0.393239,0.308634,0.580149,0.185604,0.845013,0.973942,0.912535,0.997345,1.075813,0.908528,0.808317,0.693782,0.636661,1.240484,0.966391,0.347289,0.26978,0.287657,0.423792,0.637916,0.533051,0.61034,'\'(-inf-14.9]\'',-0.051518,-0.375272,-0.621805,-0.577297,-0.590644,-0.328729,0.722562,1.366474,-1.159756,0.896032,0.623814,0.794015,0.355536,0.633329,0.851106,0.992613,0.887177,0.744062,0.618489,0.489291,1.643316,0.424169,0.571641,-0.303736,0.947203,0.440746,0.593634,0.791719,-0.030718,1.419181,0.710248,0.334533,0.645555,0.655392,-0.066562,0.25603,-0.656268,-0.272819,-0.160785,-0.162415,-0.359155,-0.529646,-0.519894,0.15954,-0.131801,-0.131883,-1.214376,0.305725,-1.432205,1.722602,0.18052,0.281536,0.228713,0.22876,0.216443,0.170802,0.095698,0.228259,0.140277,0.084499,-0.094266,-0.234852,-0.02124,-0.122348,-0.416246,-0.875507,-0.481455,1.246491,0.213979,0.143725,0.100722,-0.156244,-0.283701,-0.206645,0.330042,0.941819,0.30461,0.19538,0.455268,1.015403,0.265816,0.340065,0.353695,0.338512,0.36951,1.077157,0.325876,0.273512,0.244521,0.219979,0.289368,-0.113838,0.16433,-0.157959,'\'(-inf-6.266667]\''
0.327185,0.414606,0.334256,0.591866,0.212663,0.871867,1.00721,0.944483,1.044612,1.079276,0.981581,0.828606,0.712928,0.654373,1.245654,0.990205,0.435942,0.288186,0.329438,0.473813,0.714786,0.537797,0.617376,'\'(-inf-14.9]\'',0.058362,-0.555711,-0.62347,-0.578998,-0.592158,-0.343926,0.732535,1.376327,-1.151703,0.910111,0.622585,0.797426,0.34761,0.642646,0.868517,1.002056,0.908936,0.744997,0.628214,0.358399,1.643316,0.424169,0.729011,-0.259265,1.048212,0.809761,0.4099,0.820762,0.048749,1.232172,0.754999,0.450469,0.759719,0.853709,-0.049068,0.267179,-0.656268,-0.270463,-0.156157,-0.156647,-0.341996,-0.529009,-0.519341,0.160653,-0.110374,-0.127108,-1.24245,0.335075,-1.459209,1.766228,0.147226,0.305086,0.270521,0.306213,0.304124,0.242115,0.18178,0.299119,0.154021,0.629013,0.161548,-0.002698,0.142554,-0.042116,-0.392365,-0.895951,-0.495768,1.269277,0.218575,0.14941,0.106725,-0.226668,-0.246389,-0.180857,0.334743,0.95143,0.322697,0.201063,0.465402,1.006231,0.268497,0.34596,0.360163,0.343467,0.374668,1.060762,0.341188,0.277235,0.250655,0.227626,0.296203,-0.090297,0.173751,-0.149041,'\'(-inf-6.266667]\''
0.346959,0.43823,0.329004,0.613498,0.203435,0.869306,0.996045,0.928025,0.986357,1.140081,0.853938,0.864559,0.719828,0.683132,1.196825,0.990624,0.415283,0.16798,0.272011,0.623346,0.832801,0.603054,0.684316,'\'(-inf-14.9]\'',-0.080362,-0.404411,-0.620695,-0.641966,-0.561117,-0.297634,0.739731,1.399974,-1.150239,0.937627,0.624634,0.807658,0.337703,0.648312,0.872738,1.005113,0.912743,0.742193,0.635066,0.423845,1.643316,0.487407,0.540167,-0.096205,0.432055,0.749176,0.308846,0.936936,0.334827,1.407493,0.655553,0.726931,0.81847,0.831605,-0.037027,0.273897,-0.738233,-0.270484,-0.151395,-0.151584,-0.34812,-0.526735,-0.516941,0.164271,-0.098159,-0.124098,-1.289412,0.332668,-1.451268,1.669676,0.188843,0.26976,0.309114,0.325576,0.388781,0.368534,0.312626,0.384898,0.202125,0.801663,0.342123,0.141614,0.184824,-0.04713,-0.387397,-0.869094,-0.442438,1.157244,0.218575,0.147989,0.115729,-0.194778,-0.209413,-0.126566,0.34062,0.932209,0.326871,0.205041,0.46878,1.000116,0.275647,0.353034,0.364044,0.349661,0.380712,1.05884,0.346429,0.283794,0.258016,0.233088,0.304406,-0.068186,0.181671,-0.147624,'\'(-inf-6.266667]\''
0.356112,0.449417,0.349341,0.564224,0.225074,0.880976,1.014184,0.949762,1.019584,1.128074,0.913723,0.882454,0.724156,0.689458,1.192266,0.998649,0.565863,0.230584,0.247102,0.675496,0.811159,0.608955,0.685599,'\'(-inf-14.9]\'',0.006169,-0.221731,-0.665095,-0.621544,-0.630771,-0.272617,0.743203,1.389629,-1.148043,0.923549,0.624634,0.810386,0.33374,0.652436,0.875904,1.006552,0.915271,0.743595,0.641255,0.554737,1.784449,0.487407,0.805073,0.022384,1.118919,0.578438,0.823302,0.844525,0.080535,1.278924,0.700304,0.575323,0.614095,0.559441,-0.039366,0.281504,-0.574303,-0.273249,-0.149157,-0.153645,-0.361928,-0.528645,-0.518695,0.180183,-0.092426,-0.116556,-1.280428,0.304066,-1.418395,1.468486,0.266528,0.296255,0.383083,0.396575,0.419016,0.400949,0.264419,0.347603,0.188381,0.562609,0.206692,-0.121912,-0.015957,-0.207594,-0.351736,-0.828562,-0.52165,1.169587,0.240022,0.173574,0.132238,-0.13897,-0.13647,-0.106207,0.348847,0.922599,0.339392,0.210156,0.483981,0.994002,0.280116,0.361287,0.374394,0.357094,0.387733,1.045616,0.363615,0.289292,0.26415,0.24292,0.30714,-0.039742,0.185714,-0.151679,'\'(-inf-6.266667]\''
0.362318,0.457439,0.360071,0.596017,0.242491,0.894244,1.02233,0.95381,1.003587,1.1172,0.895059,0.916406,0.74267,0.714247,1.207647,1.020834,0.266928,0.353906,0.281612,0.625475,0.822851,0.608268,0.688985,'\'(-inf-14.9]\'',0.247904,-0.368548,-0.658435,-0.630054,-0.6179,-0.36146,0.758448,1.437907,-1.148775,0.975382,0.632007,0.824711,0.330768,0.664555,0.885929,1.020941,0.924901,0.741258,0.670874,0.423845,1.36105,0.424169,0.456237,-0.288912,0.391651,0.826284,0.042431,0.736272,0.048749,1.278924,0.600858,0.405878,0.710361,0.75513,-0.035021,0.286006,-0.738233,-0.273474,-0.143975,-0.152526,-0.362448,-0.530828,-0.520909,0.192423,-0.077521,-0.11002,-1.277396,0.345613,-1.451668,1.504227,0.299821,0.334525,0.428107,0.438528,0.419016,0.342602,0.174894,0.347603,0.215869,0.403239,-0.019026,-0.360341,-0.079361,-0.227652,-0.328656,-0.859077,-0.561059,1.21516,0.250746,0.186366,0.145745,-0.109737,-0.118318,-0.136067,0.3606,0.919396,0.389479,0.216976,0.509316,1.006231,0.285478,0.374256,0.388624,0.370721,0.397317,1.054859,0.394142,0.292586,0.269058,0.251659,0.311242,-0.03881,0.188309,-0.143319,'\'(-inf-6.266667]\''
0.374344,0.469459,0.35943,0.618627,0.216614,0.915817,1.052212,0.98295,1.040541,1.162475,0.927108,0.945112,0.754709,0.73351,1.209132,1.042525,0.451903,0.234431,0.313793,0.643568,0.966785,0.618166,0.707693,'\'(-inf-14.9]\'',-0.12294,-0.29682,-0.68674,-0.636861,-0.653484,-0.37619,0.767254,1.429532,-1.11876,0.964503,0.630778,0.822664,0.330768,0.673873,0.897536,1.00997,0.945894,0.739388,0.686125,0.554737,1.502183,0.550645,0.513939,-0.407501,1.048212,0.297546,0.602821,0.593695,-0.062504,1.056851,0.466606,0.39696,0.744492,0.83516,-0.035697,0.298295,-0.656268,-0.271815,-0.134535,-0.132277,-0.361581,-0.53001,-0.520263,0.202854,-0.06448,-0.104623,-1.267711,0.360529,-1.466234,1.47432,0.346987,0.369851,0.418459,0.42562,0.397851,0.264806,0.081925,0.332685,0.226176,0.084499,-0.327508,-0.636416,-0.190319,-0.297855,-0.326974,-0.865816,-0.556354,1.253612,0.244618,0.17926,0.144244,-0.134984,-0.257818,-0.182214,0.359425,0.903379,0.368609,0.220954,0.499182,1.003174,0.289053,0.373077,0.386037,0.368243,0.395455,1.047674,0.38439,0.293416,0.277645,0.263675,0.319444,-0.038004,0.201745,-0.139125,'\'(-inf-6.266667]\''
0.382425,0.471446,0.367661,0.604067,0.226673,0.925765,1.057826,0.994649,1.048529,1.149311,0.947449,0.966953,0.769119,0.746114,1.194004,1.042816,0.631056,0.243054,0.256792,0.454656,0.648626,0.606832,0.686651,'\'(-inf-14.9]\'',-0.048771,-0.222852,-0.65122,-0.601122,-0.620171,-0.326391,0.77426,1.408349,-1.10119,0.949145,0.622176,0.825393,0.305999,0.682215,0.885929,1.000077,0.932003,0.738921,0.762382,0.292953,1.36105,0.297693,0.380175,-0.185147,0.563367,0.462776,0.161858,0.451118,-0.14197,0.706209,0.481523,0.20076,0.669086,0.764018,-0.039083,0.306015,-0.574303,-0.274007,-0.136571,-0.139282,-0.360426,-0.5291,-0.519433,0.223693,-0.051025,-0.098298,-1.251439,0.32713,-1.437079,1.287431,0.416348,0.493492,0.460268,0.519209,0.452274,0.40419,0.236873,0.463217,0.397975,-0.008467,-0.192077,-0.510928,-0.137482,-0.172493,-0.284261,-0.839139,-0.700072,1.380836,0.24615,0.17926,0.142743,-0.08449,-0.15563,-0.186286,0.36295,0.900176,0.367218,0.225501,0.499182,1.015403,0.293522,0.375435,0.388624,0.37196,0.397317,1.048146,0.380165,0.296968,0.277645,0.262583,0.318077,-0.013653,0.215132,-0.136351,'\'(-inf-6.266667]\''
0.388855,0.483369,0.372337,0.622106,0.23586,0.928249,1.058475,0.998687,1.051869,1.135387,0.9608,0.970536,0.773549,0.766203,1.169723,1.048946,0.622362,0.248731,0.224594,0.403038,0.647182,0.61317,0.696843,'\'(-inf-14.9]\'',-0.028169,-0.399928,-0.697285,-0.715145,-0.632285,-0.285476,0.772903,1.420172,-1.109243,0.954265,0.629139,0.849949,0.287175,0.680106,0.889798,1.002775,0.9349,0.739388,0.704913,0.292953,1.36105,0.360931,0.33821,-0.392677,0.209834,0.567422,0.290472,0.527687,-0.173757,0.717897,0.49644,0.44155,1.033808,1.104542,0.028656,0.319476,-0.574303,-0.274478,-0.133559,-0.142696,-0.359617,-0.531101,-0.521555,0.237062,-0.039689,-0.081017,-1.173953,0.360997,-1.469048,1.312843,0.488484,0.499379,0.428107,0.477255,0.403898,0.277772,0.119801,0.343873,0.253664,-0.566261,-0.681133,-0.887394,-0.443936,-0.513479,-0.345966,-0.860879,-0.69968,1.292064,0.263001,0.20058,0.159252,0.0444,-0.053106,-0.194429,0.374703,0.887362,0.408957,0.231752,0.517761,1.006231,0.301566,0.389582,0.402855,0.384348,0.404918,1.033337,0.402179,0.302008,0.28378,0.263675,0.329014,0.004918,0.239853,-0.132716,'\'(-inf-6.266667]\''
0.400913,0.498088,0.373875,0.604797,0.225059,0.92216,1.059288,0.997929,1.032846,1.084043,0.960456,0.986423,0.760192,0.776962,1.104883,1.051839,0.528247,0.216894,0.179861,0.456252,0.655053,0.603397,0.683396,'\'(-inf-14.9]\'',-0.139422,-0.320356,-0.64123,-0.665792,-0.578531,-0.266772,0.778142,1.443326,-1.090941,0.964503,0.640199,0.864956,0.292129,0.683851,0.891556,0.989465,0.938877,0.74079,0.700492,0.423845,1.36105,0.487407,0.086419,-0.348206,0.462358,-0.038423,0.161858,0.448478,-0.18965,0.706209,0.481523,0.218597,0.676804,0.785581,0.028192,0.323031,-0.492339,-0.274294,-0.13058,-0.141401,-0.358346,-0.530646,-0.521186,0.244059,-0.03116,-0.06955,-1.145028,0.369596,-1.483712,1.273156,0.491259,0.48466,0.51494,0.486936,0.376687,0.238874,0.102584,0.336414,0.208997,-0.699069,-0.778944,-0.92504,-0.459787,-0.583682,-0.338032,-0.840219,-0.702817,1.295862,0.264533,0.199159,0.163754,0.008523,-0.122352,-0.156426,0.38058,0.874549,0.403392,0.236867,0.521139,1.003174,0.308716,0.394298,0.409323,0.390542,0.410565,1.024634,0.408342,0.308338,0.289914,0.273507,0.333115,0.038121,0.26373,-0.127274,'\'(-inf-6.266667]\''
0.413363,0.511335,0.385212,0.605744,0.23134,0.913045,1.040923,0.979185,1.012544,1.076031,0.933092,0.974267,0.761336,0.76491,1.063138,1.029165,0.588914,0.223,0.030551,0.298205,0.46075,0.610766,0.687703,'\'(-inf-14.9]\'',-0.068,-0.243025,-0.612925,-0.597719,-0.570202,-0.183774,0.778332,1.426577,-1.090209,0.965783,0.625862,0.85336,0.274296,0.685111,0.896657,0.979573,0.945269,0.745932,0.693861,0.227507,1.219918,0.234455,0.290999,-0.392677,0.240137,0.347115,0.46502,0.474881,-0.253223,0.565952,0.446717,0.512896,0.670538,0.855061,0.033284,0.33304,-0.410374,-0.274969,-0.125835,-0.131747,-0.358808,-0.53101,-0.521555,0.247781,-0.023979,-0.057774,-1.100532,0.379301,-1.499089,1.248795,0.480161,0.469941,0.556749,0.509527,0.406922,0.199976,0.026832,0.299119,0.178073,-0.513138,-0.839135,-1.03798,-0.491489,-0.608755,-0.287546,-0.841517,-0.739482,1.319597,0.259937,0.194895,0.159252,-0.051271,-0.073611,-0.140139,0.38058,0.874549,0.383914,0.243687,0.511005,1.000116,0.314078,0.393119,0.406736,0.389303,0.410412,1.00517,0.395889,0.313235,0.296048,0.281153,0.337216,0.055761,0.284709,-0.128716,'\'(-inf-6.266667]\''
0.415468,0.513813,0.403532,0.635204,0.250351,0.927542,1.061901,1.006896,1.054618,1.085617,0.993298,0.999919,0.768461,0.778861,1.062841,1.046068,0.687042,0.303877,0.044596,0.387073,0.643495,0.610891,0.695298,'\'(-inf-14.9]\'',-0.039157,-0.407773,-0.670645,-0.667494,-0.6179,-0.242457,0.781614,1.405886,-1.05507,0.972822,0.602104,0.826757,0.255472,0.689706,0.895953,0.965903,0.952001,0.755747,0.671316,0.227507,1.219918,0.234455,0.201823,-0.244441,0.341146,0.093761,0.391526,0.522407,-0.030718,0.554264,0.566052,0.343451,0.80192,1.061532,0.048823,0.333615,-0.574303,-0.275072,-0.119811,-0.128157,-0.358577,-0.531283,-0.52174,0.249269,-0.017768,-0.047251,-1.063627,0.36574,-1.494729,1.138075,0.48571,0.464053,0.527805,0.480482,0.391805,0.157836,0.016502,0.325226,0.208997,-0.606103,-0.951994,-1.069353,-0.465071,-0.573653,-0.252527,-0.853827,-0.847908,1.336687,0.276789,0.214794,0.17426,0.05503,0.015803,-0.091277,0.391158,0.893769,0.411739,0.248801,0.531273,1.000116,0.319441,0.406088,0.420966,0.400453,0.420119,1.012153,0.419428,0.318791,0.302182,0.2888,0.342685,0.065964,0.315114,-0.125121,'\'(-inf-6.266667]\''
0.421349,0.521001,0.402155,0.614143,0.249389,0.914858,1.041905,0.985609,1.007305,1.045862,0.941612,1.000545,0.76406,0.772044,1.060495,1.032402,0.642834,0.198961,-0.065848,0.370045,0.668727,0.614138,0.701709,'\'(-inf-14.9]\'',-0.140795,-0.43243,-0.64456,-0.555173,-0.632285,-0.238717,0.782056,1.404408,-1.036036,0.977302,0.597189,0.827439,0.242592,0.690242,0.899119,0.965723,0.953393,0.760888,0.673084,0.358399,1.219918,0.234455,0.311982,0.052031,0.492661,0.396684,-0.049436,0.540889,-0.173757,0.858154,0.501412,0.370205,0.640413,0.701918,0.045447,0.343526,-0.410374,-0.275277,-0.117102,-0.125508,-0.35771,-0.531647,-0.522109,0.255475,-0.018567,-0.038355,-1.02994,0.305056,-1.441453,0.904643,0.482935,0.478773,0.563181,0.499845,0.355523,0.109214,-0.004158,0.299119,0.205561,-0.752192,-1.057329,-1.100725,-0.496773,-0.573653,-0.239785,-0.837927,-0.814576,1.460588,0.284448,0.223323,0.180263,0.116153,-0.011088,-0.111636,0.394684,0.884159,0.404783,0.253348,0.526206,0.997059,0.326591,0.408446,0.42226,0.40293,0.423201,1.003281,0.413297,0.325235,0.311997,0.294262,0.353621,0.090996,0.366079,-0.135452,'\'(-inf-6.266667]\''
0.422783,0.524141,0.404205,0.594201,0.241608,0.915613,1.049395,0.994475,1.020808,0.978492,1.000084,0.995395,0.757458,0.759317,1.013601,1.023113,0.795456,0.24739,-0.15743,0.281177,0.534382,0.624754,0.709403,'\'(-inf-14.9]\'',-0.120193,-0.358461,-0.65677,-0.533049,-0.658026,-0.083241,0.788495,1.397511,-1.044821,0.979221,0.591045,0.83085,0.222777,0.697104,0.902109,0.961047,0.955524,0.767432,0.676842,0.162061,0.937652,0.234455,0.317227,-0.303736,0.411853,0.181884,0.621194,0.638581,-0.094291,0.390631,0.690359,0.673422,0.678292,0.8272,0.055618,0.351908,-0.328409,-0.276567,-0.115184,-0.124507,-0.354822,-0.531738,-0.522017,0.25861,-0.013026,-0.028857,-0.981266,0.295631,-1.433894,0.84611,0.482935,0.478773,0.582477,0.5063,0.379711,0.083282,-0.011044,0.261824,0.184945,-0.645946,-1.117521,-1.113274,-0.54961,-0.60374,-0.23706,-0.832316,-0.863201,1.603478,0.295172,0.236115,0.180263,0.101537,0.033283,-0.189,0.398209,0.884159,0.408957,0.256758,0.529584,1.000116,0.330166,0.413162,0.426141,0.407886,0.426376,1.004394,0.417109,0.32827,0.318131,0.306278,0.35909,0.074072,0.384199,-0.138181,'\'(-inf-6.266667]\''
0.428151,0.525196,0.414454,0.615518,0.238933,0.903966,1.045181,0.99959,1.044068,0.926609,1.064796,0.975489,0.737945,0.742422,0.940154,1.002224,0.965255,0.155554,-0.294472,0.464767,0.714867,0.633684,0.719003,'\'(-inf-14.9]\'',-0.168265,-0.319235,-0.649,-0.594315,-0.620928,-0.028299,0.793545,1.372879,-1.054338,0.963223,0.582443,0.819254,0.218814,0.703714,0.91143,0.940992,0.96879,0.774442,0.686567,-0.165169,0.514253,-0.271449,0.267394,0.00756,-0.365919,0.281023,0.795742,0.451118,-0.269116,0.133493,0.416883,0.825031,0.669707,0.951863,0.057959,0.352431,-0.410374,-0.277345,-0.107629,-0.113147,-0.3502,-0.532011,-0.522201,0.264741,-0.009226,-0.022058,-0.961269,0.258936,-1.398702,0.725336,0.452416,0.42284,0.453836,0.383666,0.23156,-0.088517,-0.176323,0.172317,0.09561,-1.150617,-1.433526,-1.345428,-0.618298,-0.678958,-0.311106,-0.800628,-0.79046,1.505212,0.299768,0.240379,0.189267,0.260988,-0.166387,-0.127923,0.402911,0.880955,0.410348,0.261873,0.531273,1.006231,0.336422,0.416699,0.431315,0.411602,0.429856,1.000177,0.416696,0.333282,0.316904,0.305186,0.356356,0.046305,0.400828,-0.129027,'\'(-inf-6.266667]\''
0.442158,0.536358,0.414934,0.593533,0.262673,0.88713,1.037159,0.985196,1.007479,0.871548,1.038094,0.977836,0.711802,0.721524,0.938752,0.988469,0.915946,0.186106,-0.400863,0.54246,0.615611,0.650919,0.724395,'\'(-inf-14.9]\'',0.066603,-0.172419,-0.625135,-0.578998,-0.595187,-0.056354,0.793134,1.353666,-1.025055,0.983701,0.551311,0.779691,0.200981,0.704533,0.896832,0.921837,0.96129,0.777714,0.693419,-0.034277,0.655386,-0.018497,0.445746,-0.659502,0.452257,0.534376,0.667128,0.863007,-0.332689,0.858154,0.725165,1.146085,0.533804,0.606276,0.048264,0.35445,-0.328409,-0.275686,-0.099097,-0.105612,-0.349969,-0.530919,-0.521002,0.276462,-0.006857,-0.013973,-0.976203,0.262597,-1.409048,0.715901,0.335889,0.181445,0.254441,0.14808,-0.007294,-0.189003,-0.203869,0.14994,0.064686,-1.642007,-1.350763,-1.132097,-0.428085,-0.513479,-0.355182,-0.756427,-0.761834,1.41644,0.318151,0.263122,0.201273,0.586536,-0.128739,-0.157783,0.414664,0.890565,0.414522,0.270966,0.534651,1.006231,0.35251,0.430847,0.445546,0.42399,0.440875,0.996972,0.422128,0.346428,0.319358,0.315017,0.353621,0.021332,0.411714,-0.119006,'\'(-inf-6.266667]\''
0.447609,0.541583,0.416055,0.605527,0.261346,0.864713,1.007599,0.964765,0.9798,0.85961,1.001511,0.96156,0.697762,0.70281,0.917606,0.965277,0.762874,0.249264,-0.5426,0.469556,0.522664,0.647828,0.718937,'\'(-inf-14.9]\'',0.345422,-0.3876,-0.559089,-0.44115,-0.566417,0.089769,0.795817,1.325585,-1.00236,0.994579,0.52059,0.752406,0.166305,0.709003,0.896305,0.905649,0.966375,0.788464,0.709113,-0.165169,0.37312,-0.144973,0.511316,-0.36303,0.533064,0.699607,0.363966,0.749474,0.287148,0.858154,0.630692,0.584241,0.571519,0.664125,0.037025,0.344512,-0.410374,-0.274765,-0.092585,-0.096488,-0.351586,-0.531374,-0.521371,0.276157,0.000077,-0.006937,-0.955577,0.239323,-1.391455,0.647554,0.199941,0.087243,0.167608,0.070627,-0.046599,-0.179279,-0.224529,0.131292,0.044071,-1.163898,-0.959518,-0.862296,-0.195602,-0.297855,-0.32465,-0.760767,-0.810851,1.503788,0.321215,0.268807,0.196771,0.268961,-0.12773,-0.150997,0.419365,0.896972,0.411739,0.277217,0.538029,1.012346,0.357872,0.433205,0.449427,0.428946,0.444416,0.981253,0.426194,0.351268,0.325492,0.315017,0.363191,0.037761,0.425794,-0.124693,'\'(-inf-6.266667]\''
0.456087,0.549188,0.414197,0.5728,0.246677,0.856327,1.000919,0.961947,0.979048,0.934728,0.959298,0.944231,0.687652,0.704848,0.849457,0.957457,0.685561,0.245434,-0.6201,0.291287,0.343175,0.654791,0.72456,'\'(-inf-14.9]\'',0.111928,-0.056983,-0.542439,-0.359462,-0.580045,0.164351,0.794649,1.292086,-0.983327,1.008018,0.482905,0.703293,0.14649,0.709978,0.889622,0.888203,0.959444,0.79641,0.717733,-0.099723,0.514253,-0.144973,0.419518,-0.244441,0.70478,0.347115,0.400713,0.757395,-0.205543,0.928282,0.665498,0.771522,0.59416,0.643644,0.036956,0.337158,-0.246444,-0.273187,-0.08286,-0.078123,-0.349738,-0.532738,-0.522847,0.273944,0.007894,-0.00024,-0.936353,0.145932,-1.289644,0.38908,0.150001,-0.024623,0.01967,-0.068142,-0.161491,-0.260316,-0.296838,0.086538,0.033763,-1.429514,-1.012186,-0.881119,-0.1639,-0.222638,-0.306859,-0.70856,-0.826537,1.679908,0.310491,0.254593,0.184765,0.145386,-0.207396,-0.171356,0.42054,0.893769,0.397826,0.283468,0.532962,1.003174,0.361447,0.434384,0.446839,0.428946,0.444629,0.966309,0.418157,0.355048,0.332853,0.322664,0.36866,0.052046,0.434191,-0.126796,'\'(-inf-6.266667]\''
0.451863,0.538835,0.412692,0.551524,0.270663,0.84448,0.985536,0.948992,0.993487,0.93914,0.978997,0.885664,0.679957,0.699818,0.837124,0.944246,0.696451,0.219592,-0.716339,0.213062,0.228104,0.643707,0.708646,'\'(-inf-14.9]\'',0.511615,-0.134313,-0.554649,-0.424131,-0.567931,0.209006,0.78537,1.215727,-0.984791,0.996499,0.427196,0.636445,0.108842,0.705603,0.866407,0.873184,0.932259,0.797812,0.728122,-0.165169,0.514253,-0.208211,0.574264,0.140972,0.351247,0.561915,0.667128,0.775877,-0.205543,0.893218,0.745054,0.718013,0.472828,0.444902,0.028949,0.33522,-0.16448,-0.27159,-0.07204,-0.059522,-0.348236,-0.531829,-0.521924,0.269629,0.015602,0.006833,-0.891708,0.14904,-1.300492,0.418188,0.008504,-0.124713,-0.157212,-0.206912,-0.258243,-0.221418,-0.210756,0.168587,0.11279,-1.177178,-0.538178,-0.404262,0.22181,0.148436,-0.288989,-0.686117,-0.845555,1.675635,0.322747,0.267386,0.183264,0.153358,-0.201682,-0.232433,0.424066,0.852125,0.406174,0.289151,0.539718,0.997059,0.365022,0.437921,0.452014,0.433901,0.448658,0.959832,0.42629,0.358599,0.332853,0.310648,0.374128,0.119201,0.452779,-0.123539,'\'(-inf-6.266667]\''
0.44631,0.530568,0.4223,0.574661,0.277765,0.8268,0.969992,0.935033,0.993742,0.964731,0.965542,0.846273,0.660238,0.68775,0.787308,0.925742,0.584739,0.274326,-0.830162,0.111954,0.154728,0.63587,0.701841,'\'(-inf-14.9]\'',0.139398,-0.072673,-0.552984,-0.270966,-0.634556,0.198485,0.783855,1.148235,-0.984791,0.999699,0.36903,0.564141,0.073176,0.708405,0.863769,0.860054,0.93331,0.802953,0.7363,-0.165169,0.37312,-0.208211,0.45886,-0.629855,0.755285,0.391176,0.657941,0.773237,-0.28501,0.904906,0.804722,0.63775,0.541921,0.475198,0.021476,0.330399,-0.328409,-0.271221,-0.07236,-0.068882,-0.345809,-0.531101,-0.521279,0.26332,0.022741,0.012307,-0.858934,0.211766,-1.381178,0.64059,-0.155189,-0.274849,-0.237613,-0.281138,-0.318712,-0.166313,-0.124673,0.202153,0.11279,-0.659227,0.033641,0.122791,0.581101,0.444291,-0.257174,-0.705953,-0.861829,1.596358,0.327343,0.274493,0.186266,0.120139,-0.160336,-0.186286,0.434644,0.826498,0.44513,0.294266,0.556608,0.98483,0.371279,0.449711,0.463657,0.443811,0.454702,0.941548,0.444682,0.362924,0.342667,0.321572,0.38233,0.133963,0.45698,-0.117949,'\'(-inf-6.266667]\''
0.443776,0.52706,0.42371,0.537871,0.270998,0.80905,0.96005,0.927165,0.995382,0.947308,0.977245,0.816887,0.63405,0.664175,0.74364,0.906575,0.570845,0.301563,-0.942545,0.077897,0.043638,0.637087,0.69464,'\'(-inf-14.9]\'',0.286362,-0.095088,-0.536334,-0.364567,-0.569445,0.21111,0.780383,1.071876,-0.985523,0.993939,0.308816,0.492518,0.031565,0.709821,0.857789,0.844046,0.934503,0.80529,0.760171,-0.165169,0.37312,-0.271449,0.540167,-0.52609,0.664376,0.688591,0.46502,0.670264,-0.316796,1.091915,0.620747,0.495059,0.525535,0.47002,0.016491,0.318182,-0.246444,-0.269644,-0.065124,-0.058463,-0.34396,-0.532283,-0.522478,0.24844,0.025175,0.020402,-0.81239,0.187105,-1.359921,0.628257,-0.221776,-0.354332,-0.279422,-0.336,-0.379182,-0.205211,-0.162549,0.161128,0.07843,-0.606103,0.123929,0.204358,0.649789,0.514494,-0.23089,-0.700181,-0.909866,1.517555,0.319683,0.263122,0.183264,-0.02071,-0.195295,-0.227004,0.439345,0.826498,0.440956,0.300518,0.556608,0.978715,0.378429,0.454427,0.466244,0.448767,0.458762,0.943303,0.445381,0.367907,0.351255,0.329219,0.389166,0.119366,0.486646,-0.111952,'\'(-inf-6.266667]\''
0.443902,0.526668,0.428514,0.548026,0.263807,0.788846,0.942813,0.905661,0.971663,0.95566,0.936416,0.792851,0.61087,0.64361,0.744112,0.889992,0.578338,0.323624,-1.040206,0.123662,0.052225,0.646361,0.70115,'\'(-inf-14.9]\'',0.058362,0.086472,-0.469178,-0.14503,-0.575502,0.214851,0.776343,1.00931,-0.979666,0.997139,0.254746,0.424988,-0.001129,0.70979,0.845127,0.832625,0.917089,0.799214,0.770781,-0.034277,0.655386,-0.081735,0.629343,-0.036911,0.462358,0.809761,0.455833,0.596336,-0.173757,0.951658,0.571024,0.361287,0.45267,0.309419,0.005605,0.306214,-0.328409,-0.267043,-0.060093,-0.045631,-0.339974,-0.531192,-0.521463,0.238327,0.026492,0.02879,-0.75816,0.16042,-1.327085,0.637721,-0.277265,-0.374939,-0.27299,-0.336,-0.367088,-0.221418,-0.176323,0.142481,0.07843,-0.287364,0.236788,0.304749,0.729044,0.614784,-0.253809,-0.678916,-0.884769,1.547462,0.29364,0.231851,0.160753,-0.108408,-0.233952,-0.273151,0.435819,0.823295,0.395044,0.302791,0.539718,0.972601,0.38111,0.448532,0.458482,0.443811,0.457999,0.946237,0.425813,0.372031,0.357389,0.327034,0.400103,0.137582,0.499464,-0.1061,'\'(-inf-6.266667]\''
0.440774,0.524828,0.441357,0.570108,0.27719,0.785952,0.927053,0.892184,0.982227,0.935621,0.963445,0.7495,0.622491,0.637602,0.766542,0.876461,0.694265,0.26296,-1.122187,-0.101436,-0.250906,0.634808,0.673861,'\'(-inf-14.9]\'',0.503374,0.086472,-0.353737,-0.054833,-0.458151,0.214851,0.771609,0.926547,-0.994308,0.985621,0.194122,0.364279,-0.059583,0.710356,0.843192,0.82678,0.918453,0.810899,0.778075,-0.230615,0.37312,-0.271449,0.359193,-0.19997,0.785588,0.209423,0.318033,0.641221,-0.157864,0.834777,0.580969,0.575323,0.456828,0.365567,-0.005493,0.303236,-0.410374,-0.264728,-0.054422,-0.034447,-0.336277,-0.530828,-0.521002,0.228214,0.026965,0.038203,-0.689929,0.140207,-1.300642,0.677072,-0.310559,-0.427928,-0.32123,-0.387635,-0.41244,-0.283007,-0.269292,0.101456,0.037199,-0.327206,0.18412,0.210633,0.734328,0.614784,-0.314873,-0.709926,-0.84085,1.590661,0.302832,0.241801,0.15625,-0.121696,-0.199665,-0.320655,0.435819,0.794464,0.386696,0.311316,0.531273,0.966486,0.386472,0.448532,0.454601,0.443811,0.457724,0.92394,0.416474,0.376127,0.362297,0.335773,0.404204,0.197566,0.522889,-0.098229,'\'(-inf-6.266667]\''
0.441962,0.521491,0.412372,0.513453,0.240574,0.768109,0.905121,0.864956,0.958874,0.906574,0.94325,0.712278,0.609574,0.62006,0.792081,0.86315,0.589353,0.345591,-1.200113,-0.076425,-0.255043,0.656821,0.693753,'\'(-inf-14.9]\'',0.326193,0.269152,-0.304342,0.1613,-0.486921,0.387861,0.763466,0.861026,-1.00236,0.976662,0.146196,0.309027,-0.09525,0.706421,0.828243,0.81311,0.915726,0.810899,0.78338,-0.361507,0.231987,-0.334687,0.346078,-0.451972,0.118926,0.484807,0.575261,0.509205,-0.348583,0.752961,0.521301,0.405878,0.382323,0.194107,-0.018681,0.296562,-0.246444,-0.253361,-0.035677,-0.004485,-0.321949,-0.514547,-0.507437,0.232361,0.03298,0.044955,-0.62899,0.035943,-1.149195,0.439178,-0.471477,-0.604558,-0.552785,-0.600631,-0.608966,-0.428874,-0.351931,0.157399,0.099046,-0.420172,0.281931,0.423964,1.120038,0.995887,-0.352537,-0.737215,-0.788695,1.723582,0.312023,0.253172,0.159252,-0.189463,-0.253112,-0.330156,0.444046,0.775244,0.42287,0.31643,0.551541,0.957314,0.387366,0.456785,0.464951,0.452483,0.449879,0.882279,0.443602,0.362008,0.365977,0.332496,0.409672,0.193042,0.529014,-0.087571,'\'(-inf-6.266667]\''
0.436902,0.507116,0.470214,0.591835,0.344983,0.758124,0.898438,0.862489,0.981177,0.87869,0.993236,0.68008,0.59593,0.59455,0.779621,0.849314,0.635961,0.42627,-1.277062,-0.270126,-0.511889,0.659849,0.678826,'\'(-inf-14.9]\'',0.702531,0.472006,-0.231081,0.232777,-0.418782,0.601786,0.75365,0.784174,-1.030179,0.970902,0.08762,0.23263,-0.125962,0.701542,0.815581,0.802498,0.908113,0.815105,0.790674,-0.426954,0.090854,-0.397925,0.288376,-0.333383,0.543165,0.495822,-0.104556,0.511846,-0.078397,0.624392,0.56108,0.289942,0.469079,0.101209,-0.01105,0.271026,-0.656268,-0.261554,-0.037579,-0.003249,-0.328882,-0.526371,-0.516388,0.214233,0.033709,0.06104,-0.536569,0.060829,-1.18844,0.682793,-0.632395,-0.766469,-0.707155,-0.765218,-0.757116,-0.496945,-0.407024,0.105186,0.057814,-0.300645,0.560317,0.68749,1.35252,1.226554,-0.351015,-0.709069,-0.815557,1.741621,0.276789,0.214794,0.133739,-0.319682,-0.376477,-0.374946,0.43817,0.775244,0.37974,0.322682,0.529584,0.957314,0.390048,0.448532,0.453308,0.44505,0.457968,0.902316,0.414949,0.378704,0.369658,0.337958,0.411039,0.29119,0.545684,-0.074797,'\'(-inf-6.266667]\''
0.437899,0.505398,0.461983,0.578628,0.300047,0.738912,0.881765,0.848613,0.974757,0.933985,0.952913,0.661268,0.574101,0.579517,0.741369,0.837001,0.480088,0.396697,-1.345121,-0.23394,-0.541317,0.664658,0.673762,'\'(-inf-14.9]\'',0.673688,0.511232,-0.1001,0.30085,-0.269632,0.446311,0.743929,0.700425,-1.036036,0.958104,0.026996,0.160325,-0.167573,0.697198,0.800456,0.785591,0.90175,0.822116,0.801947,-0.296061,0.090854,-0.461163,0.450991,-0.007264,0.886597,0.303053,0.272099,0.736272,-0.157864,1.138667,0.809694,0.254269,0.378669,0.192948,-0.024435,0.251947,-0.656268,-0.260468,-0.030225,0.012232,-0.326397,-0.530464,-0.52054,0.20116,0.046175,0.080178,-0.414787,0.102181,-1.248743,1.009209,-0.743373,-0.85184,-0.80042,-0.842671,-0.802468,-0.477496,-0.379477,0.082809,0.023455,0.031376,0.906418,0.988663,1.532166,1.376989,-0.338834,-0.699641,-0.843987,1.838938,0.269129,0.204845,0.124734,-0.249257,-0.461857,-0.384446,0.436994,0.762431,0.342175,0.328933,0.511005,0.960371,0.397198,0.447353,0.446839,0.443811,0.456412,0.894153,0.392268,0.383687,0.379472,0.345604,0.419242,0.386321,0.590792,-0.064058,'\'(-inf-6.266667]\''
0.44174,0.506282,0.459388,0.583946,0.28055,0.737646,0.885905,0.850899,0.999282,1.007108,0.950443,0.637799,0.566536,0.589768,0.701034,0.843383,0.404606,0.303575,-1.336907,-0.28609,-0.618288,0.666687,0.667483,'\'(-inf-14.9]\'',0.600892,0.770122,-0.030169,0.479543,-0.25449,0.302759,0.738848,0.643772,-1.056534,0.958744,-0.019291,0.103027,-0.196305,0.69575,0.785683,0.768864,0.887745,0.819312,0.808357,-0.230615,-0.050279,-0.334687,0.361815,-0.422324,0.634074,0.330592,0.400713,0.812841,0.001069,0.986722,0.884278,0.405878,0.396156,0.200715,-0.038709,0.242501,-0.656268,-0.257969,-0.021307,0.030832,-0.319869,-0.529555,-0.519618,0.186193,0.058264,0.087397,-0.373609,0.114059,-1.265031,1.262553,-0.818284,-0.907773,-0.858309,-0.874943,-0.790374,-0.341354,-0.227972,0.008219,0.105918,0.443081,1.42557,1.434148,1.569152,1.632729,-0.334266,-0.648249,-0.832811,1.775326,0.261469,0.194895,0.111227,-0.344928,-0.473286,-0.358658,0.435819,0.746414,0.328262,0.33348,0.495804,0.960371,0.401666,0.444995,0.441665,0.441334,0.454031,0.887609,0.37378,0.386236,0.386833,0.354344,0.426078,0.372604,0.610012,-0.045805,'\'(-inf-6.266667]\''
0.446064,0.507435,0.463072,0.581321,0.284903,0.760282,0.900841,0.871986,1.043987,1.022961,1.011636,0.6334,0.597532,0.607099,0.77791,0.864655,0.536805,0.457536,-1.267728,-0.274383,-0.598414,0.653511,0.656107,'\'(-inf-14.9]\'',0.610507,0.556061,0.044201,0.576548,-0.196193,0.263948,0.734934,0.579236,-1.027983,0.952345,-0.070084,0.032768,-0.21711,0.695971,0.774779,0.765087,0.877121,0.821649,0.81322,-0.296061,0.231987,-0.334687,0.702783,-0.051734,0.795689,0.864837,0.327219,0.773237,0.001069,1.021786,0.864389,0.281024,0.372965,0.078332,-0.0546,0.239793,-0.656268,-0.256433,-0.017874,0.034541,-0.318136,-0.52719,-0.517126,0.175176,0.057761,0.087051,-0.394205,0.110383,-1.260293,1.455872,-0.843254,-0.934267,-0.871173,-0.891079,-0.808515,-0.357561,-0.245189,-0.07383,0.044071,0.482924,1.455665,1.459246,1.500464,1.587598,-0.322806,-0.597849,-0.850653,1.874542,0.256874,0.189209,0.105224,-0.287792,-0.461857,-0.334228,0.439345,0.730397,0.329653,0.342573,0.495804,0.935913,0.407923,0.448532,0.442958,0.44505,0.456106,0.875094,0.37953,0.388442,0.391741,0.358713,0.431546,0.346665,0.600148,-0.047799,'\'(-inf-6.266667]\''
0.446346,0.508023,0.472167,0.591164,0.293965,0.760075,0.887008,0.85186,1.015199,1.033102,0.960918,0.627545,0.613093,0.6276,0.790199,0.863913,0.548236,0.451628,-1.282218,-0.414337,-0.696928,0.677553,0.680338,'\'(14.9-27.8]\'',0.528097,0.52356,0.060851,0.608883,-0.187865,0.219527,0.731052,0.538347,-1.069711,0.946586,-0.098758,0.004801,-0.245842,0.694712,0.773724,0.751417,0.878172,0.81791,0.816093,-0.296061,0.231987,-0.334687,1.046373,-0.303736,1.129019,1.156745,0.896796,1.095355,0.636799,1.290612,1.063281,0.450469,0.47934,0.251492,-0.048536,0.231262,-0.820198,-0.256453,-0.012944,0.041192,-0.317674,-0.528281,-0.518233,0.180257,0.063451,0.100373,-0.32298,0.079585,-1.217044,1.527805,-0.840479,-0.910717,-0.848661,-0.862034,-0.787351,-0.370527,-0.289951,-0.088748,0.050942,0.562609,1.418046,1.371404,1.474045,1.592613,-0.301891,-0.588349,-0.86928,1.858876,0.261469,0.194895,0.102223,-0.306394,-0.42589,-0.334228,0.442871,0.736804,0.321305,0.345983,0.495804,0.908397,0.414179,0.452069,0.444252,0.447528,0.459983,0.847129,0.386804,0.393998,0.397875,0.36199,0.439748,0.380357,0.620452,-0.048086,'\'(-inf-6.266667]\''
0.444885,0.507852,0.471719,0.577767,0.289836,0.784823,0.913091,0.873593,1.052494,1.066078,1.000727,0.636106,0.635739,0.65427,0.810558,0.886747,0.702782,0.434041,-1.201891,-0.32068,-0.648264,0.672182,0.671757,'\'(14.9-27.8]\'',0.651712,0.507869,0.122457,0.602075,-0.100041,0.296212,0.73061,0.492531,-1.116564,0.939547,-0.129479,-0.03408,-0.263675,0.697198,0.771965,0.744762,0.880473,0.816975,0.825156,-0.230615,0.514253,-0.144973,0.555904,-0.066558,0.644175,0.528869,0.52014,0.841885,-0.316796,0.986722,0.938974,0.584241,0.426012,0.116434,-0.051355,0.228139,-0.820198,-0.2559,-0.010959,0.040015,-0.315132,-0.530282,-0.520356,0.174627,0.066362,0.107429,-0.292958,0.120961,-1.275057,1.928724,-0.843254,-0.89011,-0.826149,-0.803945,-0.684552,-0.227901,-0.162549,0.023137,0.126534,1.027437,1.756623,1.609833,1.63784,1.707946,-0.320082,-0.613917,-0.868691,1.817576,0.273725,0.211952,0.115729,-0.234641,-0.302189,-0.303011,0.448747,0.759227,0.346349,0.351666,0.507627,0.896168,0.417754,0.457964,0.452014,0.454961,0.46624,0.840955,0.401734,0.398666,0.401555,0.369637,0.445217,0.384755,0.621084,-0.036563,'\'(-inf-6.266667]\''
0.447776,0.506846,0.484018,0.608848,0.305869,0.800523,0.912468,0.866842,1.04782,1.115814,0.964404,0.626468,0.670239,0.687266,0.855029,0.89626,0.829327,0.50053,-1.171169,-0.395712,-0.739463,0.679801,0.67008,'\'(14.9-27.8]\'',0.456675,0.854177,0.196273,0.610585,-0.003889,0.360974,0.727233,0.444252,-1.129009,0.91075,-0.15037,-0.05659,-0.281508,0.696915,0.769679,0.7346,0.879791,0.819779,0.827808,-0.099723,0.655386,-0.081735,0.424763,-0.629855,0.108825,0.870345,0.327219,0.783798,-0.094291,0.904906,0.799749,0.575323,0.472851,0.161338,-0.057761,0.224699,-0.984127,-0.257211,-0.010942,0.031951,-0.312589,-0.529737,-0.51971,0.159896,0.072003,0.111114,-0.306624,0.088355,-1.222118,1.989676,-0.837705,-0.901885,-0.851877,-0.829762,-0.711764,-0.257075,-0.186653,0.004489,0.099046,0.881348,1.67386,1.553363,1.600854,1.657801,-0.336189,-0.616781,-0.829674,1.788143,0.272193,0.21053,0.127736,-0.177504,-0.240002,-0.320655,0.45815,0.75282,0.374174,0.359054,0.524517,0.890053,0.423116,0.468575,0.463657,0.463633,0.475916,0.837515,0.429943,0.403907,0.405236,0.375099,0.447951,0.372352,0.631975,-0.032419,'\'(-inf-6.266667]\''
0.454191,0.51369,0.47505,0.614519,0.294472,0.814739,0.927415,0.880061,1.062802,1.13193,0.978775,0.636728,0.683269,0.693486,0.914108,0.913276,0.831265,0.454272,-1.109066,-0.403162,-0.716327,0.686452,0.683659,'\'(14.9-27.8]\'',0.334434,0.531405,0.260098,0.607181,0.084692,0.266286,0.727769,0.403363,-1.150971,0.894113,-0.172489,-0.0791,-0.302314,0.700063,0.766865,0.733791,0.874223,0.818844,0.843501,-0.230615,0.796519,-0.081735,0.875889,-0.081382,0.906799,0.980499,0.657941,0.907893,0.144108,1.045163,0.859417,0.646668,0.472874,0.241754,-0.063699,0.229405,-0.984127,-0.25672,-0.006533,0.038485,-0.309585,-0.530282,-0.520356,0.148074,0.076769,0.118049,-0.286728,0.062901,-1.176151,2.07628,-0.837705,-0.910717,-0.845445,-0.849125,-0.751069,-0.308939,-0.203869,0.00076,0.119662,0.708698,1.553477,1.521991,1.59557,1.687888,-0.388519,-0.660327,-0.796538,1.639557,0.267597,0.204845,0.126235,-0.165545,-0.214791,-0.31794,0.4605,0.736804,0.378348,0.365874,0.51945,0.886996,0.427585,0.472112,0.463657,0.46611,0.477443,0.835086,0.42019,0.408747,0.410143,0.375099,0.457521,0.380538,0.639957,-0.025594,'\'(-inf-6.266667]\''
0.459894,0.521516,0.482801,0.623443,0.302101,0.842082,0.956738,0.912611,1.10842,1.169461,1.028912,0.651737,0.707742,0.72345,0.944508,0.945463,0.801901,0.461729,-0.986104,-0.427109,-0.731085,0.682392,0.679582,'\'(14.9-27.8]\'',0.153133,0.609856,0.291179,0.588461,0.135418,0.164351,0.729063,0.389077,-1.178058,0.904991,-0.189284,-0.10161,-0.31024,0.702266,0.767041,0.737028,0.871098,0.821181,0.851238,-0.099723,0.796519,-0.018497,0.752616,0.140972,0.755285,0.738161,0.630381,1.018786,0.080535,1.056851,1.108031,0.602077,0.405128,0.072072,-0.081505,0.234612,-0.984127,-0.2559,-0.002326,0.045666,-0.306466,-0.531829,-0.521924,0.139629,0.091484,0.125535,-0.265569,0.012093,-1.084162,1.980724,-0.837705,-0.916604,-0.855093,-0.871716,-0.796421,-0.406184,-0.283065,-0.043994,0.071558,0.509485,1.327759,1.377679,1.532166,1.617685,-0.427786,-0.690876,-0.749678,1.552209,0.273725,0.21053,0.129236,-0.217367,-0.265213,-0.300296,0.461676,0.71438,0.378348,0.369852,0.51945,0.880881,0.430266,0.47447,0.464951,0.467349,0.480342,0.821862,0.422128,0.413186,0.41505,0.380561,0.461622,0.399571,0.668133,-0.017819,'\'(-inf-6.266667]\''
0.45291,0.512464,0.498142,0.615784,0.321619,0.840971,0.953747,0.912129,1.110902,1.211008,1.007872,0.645488,0.708839,0.723526,0.935485,0.941999,0.828185,0.472463,-1.001128,-0.451055,-0.74628,0.682236,0.679516,'\'(14.9-27.8]\'',0.400362,0.400279,0.259543,0.588461,0.092264,0.158739,0.726223,0.361489,-1.188307,0.896672,-0.206078,-0.120709,-0.323119,0.701196,0.768448,0.73514,0.870502,0.823051,0.850132,-0.296061,0.796519,-0.208211,0.590001,-0.19997,0.896698,0.550899,0.455833,0.965979,0.096429,1.115291,1.003613,0.557486,0.501313,0.203768,-0.079208,0.242408,-0.984127,-0.254712,0.004859,0.055614,-0.303404,-0.531101,-0.521279,0.130305,0.102565,0.133447,-0.21141,-0.073922,-0.92237,1.629884,-0.843254,-0.922492,-0.861525,-0.903988,-0.868984,-0.52936,-0.379477,-0.081289,0.054378,0.217307,1.056897,1.214543,1.489896,1.602642,-0.482359,-0.744273,-0.606939,1.61772,0.270661,0.211952,0.13524,-0.198764,-0.217481,-0.322012,0.466377,0.701566,0.385305,0.380081,0.522828,0.877824,0.435629,0.479186,0.470125,0.471066,0.48547,0.815588,0.426194,0.419401,0.421185,0.392577,0.465723,0.423473,0.68749,-0.010203,'\'(-inf-6.266667]\''
0.452865,0.51185,0.501537,0.6421,0.330623,0.837526,0.945719,0.90076,1.08222,1.181044,0.980329,0.655748,0.710872,0.742764,0.936027,0.945463,0.753466,0.480734,-0.988362,-0.371234,-0.681576,0.688668,0.689117,'\'(14.9-27.8]\'',0.449808,0.465281,0.215698,0.471034,0.083935,0.194277,0.726191,0.325526,-1.190503,0.904991,-0.240896,-0.154133,-0.358786,0.703462,0.759126,0.726236,0.857634,0.82679,0.860079,-0.230615,0.796519,-0.144973,0.532299,0.00756,0.603771,0.694099,0.152672,0.852446,-0.094291,0.986722,0.864389,0.628832,0.534624,0.357645,-0.074069,0.245308,-1.066092,-0.25717,0.01196,0.064326,-0.303115,-0.530737,-0.521002,0.125109,0.119288,0.137194,-0.201625,-0.066943,-0.945275,1.738219,-0.840479,-0.937211,-0.880821,-0.933033,-0.929454,-0.697918,-0.513766,-0.140961,-0.055572,-0.06159,0.658128,0.963566,1.400074,1.437163,-0.462004,-0.733442,-0.645565,1.730703,0.272193,0.213373,0.139742,-0.174847,-0.169076,-0.383089,0.472253,0.727193,0.395044,0.384628,0.527895,0.877824,0.441885,0.48626,0.4753,0.47726,0.490049,0.807391,0.432897,0.424384,0.426092,0.392577,0.471192,0.417049,0.683788,0.005672,'\'(-inf-6.266667]\''
0.454198,0.512267,0.490743,0.618389,0.305435,0.840738,0.956188,0.906401,1.087787,1.181054,0.989165,0.657465,0.705418,0.740799,0.930559,0.947512,0.788483,0.419834,-0.980628,-0.486177,-0.749885,0.705623,0.708745,'\'(14.9-27.8]\'',0.236916,0.466402,0.262318,0.603777,0.089235,0.268624,0.723698,0.299909,-1.202949,0.905631,-0.262197,-0.186193,-0.363739,0.702613,0.750685,0.726686,0.852378,0.833801,0.850575,-0.230615,0.655386,-0.144973,0.980802,0.096502,1.098717,0.914407,0.850862,1.1376,0.207681,1.220484,0.97378,1.047985,0.414123,0.112415,-0.087982,0.256761,-0.902162,-0.255327,0.016015,0.069093,-0.302768,-0.531556,-0.521832,0.117458,0.139126,0.137484,-0.216072,-0.101792,-0.874676,1.565875,-0.837705,-0.92838,-0.877605,-0.933033,-0.941548,-0.81137,-0.648054,-0.22301,-0.11742,-0.127994,0.387266,0.712588,1.278549,1.341888,-0.46529,-0.712789,-0.607332,1.762509,0.279853,0.22048,0.153249,-0.141627,-0.125713,-0.389875,0.475779,0.698363,0.397826,0.389743,0.527895,0.871709,0.446354,0.488618,0.477887,0.479737,0.494261,0.803511,0.433723,0.430054,0.432226,0.400224,0.475293,0.468203,0.683726,0.017695,'\'(-inf-6.266667]\''
0.458151,0.517174,0.500224,0.605742,0.315239,0.831911,0.953938,0.900132,1.080525,1.16228,0.988788,0.648599,0.688967,0.73596,0.910187,0.936799,0.94611,0.294737,-1.022285,-0.391455,-0.695344,0.698191,0.699079,'\'(14.9-27.8]\'',0.227302,0.450712,0.301724,0.598672,0.144504,0.259272,0.727296,0.263946,-1.19636,0.897312,-0.286774,-0.215524,-0.380582,0.708499,0.752971,0.724528,0.853912,0.845953,0.853448,-0.296061,0.655386,-0.271449,0.571641,-0.348206,0.472459,0.297546,1.291824,1.127039,0.016962,1.197108,0.998641,1.092576,0.441016,0.169182,-0.097523,0.257952,-0.902162,-0.253709,0.023536,0.079571,-0.301901,-0.531738,-0.521924,0.113197,0.163917,0.139224,-0.229488,-0.112058,-0.840463,1.484841,-0.837705,-0.937211,-0.893685,-0.945942,-0.962712,-0.808129,-0.623951,-0.159608,-0.004033,-0.22096,0.39479,0.756509,1.368371,1.507366,-0.465209,-0.684763,-0.604979,1.771528,0.292108,0.236115,0.166756,-0.11771,-0.153277,-0.395305,0.48048,0.68555,0.415913,0.399404,0.532962,0.865595,0.451717,0.494512,0.483062,0.484693,0.498535,0.796022,0.439536,0.43478,0.439587,0.401317,0.487597,0.431958,0.685418,0.035844,'\'(-inf-6.266667]\''
0.463235,0.522767,0.506885,0.634997,0.317684,0.850265,0.968225,0.921162,1.114789,1.244683,0.994058,0.657471,0.711809,0.747846,0.926441,0.953358,0.976509,0.477459,-0.956555,-0.37283,-0.71387,0.689668,0.683067,'\'(14.9-27.8]\'',0.481398,0.442867,0.312824,0.481245,0.212643,0.18773,0.727264,0.243748,-1.192699,0.91267,-0.314218,-0.24963,-0.397425,0.709758,0.747343,0.711398,0.850276,0.851562,0.858311,-0.361507,0.655386,-0.208211,0.847038,-0.377854,0.997707,0.925422,0.749808,1.05311,-0.157864,0.951658,0.934001,1.244184,0.451428,0.168873,-0.105591,0.260509,-0.984127,-0.252562,0.032118,0.093051,-0.298088,-0.531283,-0.521555,0.11029,0.182914,0.144814,-0.216924,-0.068984,-0.930592,1.711783,-0.951457,-1.037301,-1.006247,-1.03953,-1.011088,-0.775714,-0.586075,-0.163338,-0.041829,0.111061,0.778511,1.08278,1.579719,1.657801,-0.487167,-0.707541,-0.578313,1.740672,0.292108,0.236115,0.168257,-0.064559,-0.240002,-0.341014,0.484006,0.688753,0.414522,0.40736,0.532962,0.850308,0.457973,0.498049,0.485649,0.488409,0.500855,0.779223,0.440489,0.439104,0.443268,0.405686,0.491698,0.371386,0.68878,0.053567,'\'(-inf-6.266667]\''
0.468419,0.52652,0.522195,0.613575,0.334605,0.831608,0.944147,0.893744,1.072745,1.185463,0.96243,0.632656,0.699894,0.724416,0.92372,0.933331,0.886519,0.472908,-1.033166,-0.55642,-0.846826,0.690448,0.679944,'\'(14.9-27.8]\'',0.327567,0.537009,0.42882,0.528896,0.349679,0.290835,0.722498,0.19744,-1.202216,0.904351,-0.347398,-0.287147,-0.423184,0.707964,0.749454,0.713736,0.853657,0.858105,0.859858,-0.230615,0.796519,-0.144973,0.938837,-0.140676,1.118919,0.782222,1.05297,1.383149,0.096429,1.699695,1.30195,0.985558,0.380438,0.142016,-0.112681,0.27084,-0.820198,-0.250391,0.035702,0.096818,-0.291907,-0.530282,-0.520356,0.107045,0.200984,0.150247,-0.205608,-0.077357,-0.903058,1.648951,-0.979202,-1.052021,-1.019111,-1.049212,-1.023182,-0.782197,-0.592962,-0.200633,-0.10024,0.190746,0.838703,1.132975,1.579719,1.6227,-0.508804,-0.704718,-0.548511,1.682281,0.287512,0.231851,0.169757,-0.033997,-0.134117,-0.327441,0.487532,0.675939,0.413131,0.412475,0.529584,0.838079,0.463335,0.501586,0.488237,0.490887,0.503113,0.76121,0.438742,0.444231,0.454309,0.424257,0.498534,0.382413,0.70075,0.075526,'\'(-inf-6.266667]\''
0.461894,0.517713,0.521874,0.629673,0.345114,0.859228,0.977635,0.927122,1.128595,1.243346,1.016529,0.63919,0.720151,0.760419,0.902732,0.960119,0.85055,0.366398,-0.926561,-0.411677,-0.738819,0.717644,0.712526,'\'(14.9-27.8]\'',0.35229,0.529163,0.370544,0.627603,0.225514,0.200823,0.725907,0.176749,-1.211001,0.906911,-0.365421,-0.316478,-0.424174,0.712686,0.741364,0.704743,0.848515,0.861844,0.868257,-0.296061,0.655386,-0.271449,1.10932,-0.348206,1.098717,0.95296,1.512306,1.150801,-0.030718,1.290612,1.003613,1.11933,0.451089,0.160835,-0.114046,0.269588,-0.984127,-0.248936,0.041221,0.099231,-0.291849,-0.527918,-0.517957,0.098868,0.215601,0.15634,-0.169924,-0.079959,-0.892312,1.588747,-0.979202,-1.06674,-1.025543,-1.062121,-1.050393,-0.775714,-0.586075,-0.215551,-0.1346,0.071218,0.853751,1.145524,1.558584,1.572555,-0.558729,-0.735218,-0.487337,1.597782,0.308959,0.258858,0.190768,0.08692,-0.015794,-0.341014,0.496935,0.656719,0.450696,0.415885,0.546474,0.822792,0.469592,0.513376,0.49988,0.500797,0.510134,0.733818,0.463806,0.449071,0.455536,0.414425,0.504002,0.391399,0.711007,0.07718,'\'(-inf-6.266667]\''
0.453626,0.508121,0.514284,0.59923,0.324415,0.863433,0.98551,0.940021,1.146343,1.188559,1.076462,0.63968,0.720009,0.755674,0.884101,0.956286,1.091446,0.371003,-0.940269,-0.524492,-0.823825,0.722733,0.714663,'\'(14.9-27.8]\'',0.272627,0.561665,0.367769,0.443805,0.304253,0.275638,0.721741,0.115661,-1.207341,0.883234,-0.401058,-0.359451,-0.447952,0.712434,0.737143,0.711578,0.838544,0.867453,0.867815,-0.4924,0.655386,-0.271449,0.521808,-0.377854,0.048219,0.633515,0.961103,1.272256,-0.078397,0.858154,1.063281,1.779274,0.499333,0.162652,-0.107879,0.280865,-0.902162,-0.246704,0.047296,0.100585,-0.290867,-0.528827,-0.518787,0.087171,0.23409,0.162825,-0.135071,-0.125766,-0.776108,1.268871,-0.973653,-1.072627,-1.025543,-1.068575,-1.068534,-0.824336,-0.637724,-0.2976,-0.234242,-0.035028,0.725844,1.038859,1.431776,1.417105,-0.571791,-0.730023,-0.50616,1.45869,0.33347,0.288707,0.226787,0.170632,0.082696,-0.301653,0.508688,0.647109,0.489652,0.41759,0.57012,0.816678,0.47406,0.523987,0.516697,0.513185,0.520054,0.719852,0.49014,0.456145,0.459216,0.42098,0.510837,0.414472,0.697652,0.088944,'\'(-inf-6.266667]\''
0.457064,0.511409,0.527767,0.624063,0.342606,0.854184,0.984524,0.941908,1.146539,1.199613,1.070227,0.643755,0.701296,0.741483,0.894984,0.959431,0.87892,0.396054,-0.926579,-0.59367,-0.864094,0.720298,0.713085,'\'(14.9-27.8]\'',0.317952,0.512352,0.367769,0.556126,0.254284,0.352324,0.715239,0.077728,-1.233696,0.874915,-0.425226,-0.385372,-0.468758,0.708373,0.729404,0.707801,0.831499,0.873996,0.864721,-0.230615,0.514253,-0.208211,0.776222,-0.274088,0.765386,0.886868,0.713061,1.016145,-0.110184,0.963346,1.028475,0.914213,0.477454,0.22479,-0.108099,0.284606,-0.984127,-0.246479,0.050695,0.103999,-0.288382,-0.53001,-0.519987,0.082571,0.243189,0.169049,-0.125291,-0.118289,-0.79015,1.245739,-0.976428,-1.084403,-1.038407,-1.084711,-1.086675,-0.863234,-0.668714,-0.319977,-0.272038,-0.101432,0.64308,0.988663,1.405357,1.36696,-0.57083,-0.736468,-0.555962,1.287791,0.353385,0.311449,0.264306,0.408481,0.004711,-0.298939,0.512214,0.611872,0.489652,0.419863,0.568431,0.816678,0.481211,0.527524,0.523166,0.516902,0.526128,0.709901,0.488202,0.465596,0.462897,0.423164,0.512205,0.379377,0.708928,0.098635,'\'(-inf-6.266667]\''
0.466668,0.52181,0.538913,0.616104,0.347183,0.833107,0.954565,0.914324,1.110358,1.166383,1.032478,0.623446,0.69104,0.724065,0.872603,0.934162,0.804661,0.346805,-1.023263,-0.588881,-0.891315,0.734411,0.719628,'\'(14.9-27.8]\'',0.267133,0.617702,0.471555,0.654832,0.35195,0.393706,0.713251,0.037332,-1.257854,0.897312,-0.471513,-0.438577,-0.503434,0.708971,0.726766,0.703124,0.834454,0.885681,0.861405,-0.4924,0.514253,-0.397925,0.558527,-0.333383,0.502761,0.413207,1.016223,1.1376,0.016962,1.138667,1.122948,0.949885,0.443511,0.154807,-0.105308,0.284942,-0.820198,-0.244287,0.056938,0.123071,-0.285898,-0.529464,-0.519525,0.079393,0.255865,0.179926,-0.076414,-0.084484,-0.873785,1.383777,-0.973653,-1.078515,-1.038407,-1.081484,-1.077604,-0.814612,-0.617065,-0.375919,-0.306398,-0.074871,0.748415,1.076505,1.320818,1.3118,-0.557287,-0.724505,-0.572824,1.202817,0.325811,0.278757,0.216281,0.089578,-0.173446,-0.355944,0.503986,0.599059,0.446522,0.423273,0.543096,0.807506,0.482104,0.518092,0.510229,0.50823,0.522099,0.697453,0.459454,0.469405,0.465351,0.428626,0.510837,0.421871,0.726556,0.108772,'\'(-inf-6.266667]\''
0.483902,0.540528,0.546536,0.640143,0.350141,0.831956,0.955221,0.908501,1.097725,1.168169,1.011566,0.621678,0.687852,0.744721,0.833626,0.93539,0.858315,0.320716,-1.015707,-0.492563,-0.845612,0.735222,0.716702,'\'(14.9-27.8]\'',0.533591,0.584079,0.454905,0.600374,0.353464,0.336426,0.714008,0.023045,-1.239552,0.908191,-0.491994,-0.46177,-0.519285,0.71064,0.723073,0.697548,0.832039,0.893627,0.855216,-0.296061,0.514253,-0.334687,0.841792,-0.274088,0.876496,0.842807,0.915169,1.22209,0.096429,1.185419,1.122948,1.155003,0.46922,0.203652,-0.102828,0.279319,-0.820198,-0.240436,0.067,0.145439,-0.28353,-0.528918,-0.518972,0.065381,0.269715,0.189563,-0.061595,-0.048709,-0.953757,1.516914,-0.973653,-1.087347,-1.057703,-1.100847,-1.104815,-0.947513,-0.751353,-0.569853,-0.467888,-0.194398,0.439934,0.831802,1.046066,1.076119,-0.611138,-0.749532,-0.47773,0.850577,0.321215,0.273071,0.205776,0.112167,-0.177143,-0.327441,0.500461,0.589448,0.400609,0.430093,0.514383,0.789162,0.490148,0.513376,0.498586,0.503275,0.519383,0.669623,0.429117,0.476851,0.472711,0.434088,0.51904,0.44361,0.723663,0.129078,'\'(-inf-6.266667]\''
0.491579,0.54855,0.559283,0.666028,0.371316,0.836382,0.959402,0.916551,1.10593,1.203247,1.00434,0.630342,0.692526,0.763384,0.831621,0.950568,0.663659,0.27975,-0.953177,-0.438816,-0.849528,0.752583,0.72479,'\'(14.9-27.8]\'',0.420964,0.711844,0.584776,0.709291,0.482929,0.325905,0.713661,0.000384,-1.233696,0.919069,-0.518619,-0.489054,-0.544054,0.711741,0.71639,0.687656,0.827835,0.891757,0.863837,-0.296061,0.514253,-0.271449,1.14604,-0.096205,0.876496,1.030068,1.558239,1.327702,0.001069,1.524373,1.316867,0.958803,0.492236,0.198744,-0.098004,0.274839,-1.066092,-0.237937,0.073209,0.15521,-0.282778,-0.528736,-0.518787,0.057113,0.280444,0.194779,-0.060685,-0.008175,-1.035185,1.65156,-0.984751,-1.140336,-1.105944,-1.152483,-1.156215,-1.028551,-0.833992,-0.66309,-0.533171,-0.367049,0.281931,0.706314,0.935108,1.000901,-0.604327,-0.740015,-0.402244,0.701041,0.33347,0.288707,0.216281,0.186578,-0.090418,-0.342371,0.502811,0.608669,0.403392,0.435208,0.51945,0.776933,0.491936,0.514555,0.503761,0.505753,0.521947,0.652082,0.437598,0.479572,0.477619,0.437365,0.523141,0.478365,0.729612,0.148023,'\'(6.266667-10.533333]\''
0.493714,0.550292,0.570076,0.687243,0.384568,0.853677,0.983304,0.945038,1.150129,1.289468,1.024478,0.641041,0.701859,0.775821,0.816834,0.961521,0.819557,0.30408,-0.907591,-0.656464,-0.951551,0.734754,0.7144,'\'(14.9-27.8]\'',0.165494,0.567268,0.629732,1.063273,0.38602,0.277976,0.713629,-0.038535,-1.227107,0.926748,-0.555485,-0.528617,-0.575757,0.714197,0.711466,0.680192,0.824454,0.897366,0.869805,-0.426954,0.37312,-0.397925,1.224725,0.274385,1.159322,1.250375,0.979476,1.354106,0.207681,1.395805,1.247255,1.155003,0.490045,0.181046,-0.101124,0.270465,-1.148057,-0.236606,0.081118,0.163981,-0.281276,-0.527281,-0.517311,0.062025,0.295497,0.200517,-0.053291,-0.004638,-1.029376,1.585728,-1.043014,-1.137392,-1.112376,-1.142801,-1.122956,-0.834061,-0.610178,-0.469156,-0.385425,0.057938,0.89137,1.245915,1.320818,1.321829,-0.57107,-0.736381,-0.478318,0.841557,0.335002,0.290128,0.219283,0.138742,-0.089074,-0.33287,0.509863,0.624685,0.418696,0.442596,0.529584,0.764704,0.497298,0.521629,0.510229,0.511947,0.528906,0.645504,0.452751,0.485214,0.481299,0.434088,0.52861,0.61071,0.74368,0.148909,'\'(-inf-6.266667]\''
0.497454,0.554217,0.591342,0.686088,0.402257,0.846512,0.969112,0.925903,1.113782,1.222588,1.005695,0.644461,0.703028,0.769128,0.789085,0.946017,0.863567,0.334764,-0.965338,-0.545245,-0.870687,0.733505,0.716866,'\'(14.9-27.8]\'',0.276747,0.577355,0.587551,0.893089,0.403433,0.225138,0.712651,-0.040013,-1.232231,0.942746,-0.566545,-0.540213,-0.585665,0.713315,0.715159,0.673717,0.832153,0.897833,0.852785,-0.296061,0.514253,-0.334687,1.056864,-0.229618,1.260332,1.145729,0.786555,1.567971,0.525546,1.536062,1.446147,1.235266,0.486813,0.1681,-0.094752,0.263771,-1.230021,-0.234783,0.090861,0.174046,-0.27937,-0.525007,-0.515188,0.047504,0.320014,0.207087,-0.049033,-0.006983,-1.012572,1.48075,-1.037466,-1.12856,-1.096296,-1.116983,-1.06551,-0.671986,-0.448343,-0.323706,-0.251422,0.283711,1.252519,1.528265,1.516315,1.507366,-0.555043,-0.736713,-0.53361,0.908967,0.34879,0.305763,0.228287,0.124126,-0.061174,-0.305725,0.519265,0.615075,0.453478,0.44771,0.548163,0.752474,0.500873,0.531061,0.523166,0.521857,0.536934,0.626141,0.478259,0.490684,0.48498,0.43955,0.531344,0.656785,0.771897,0.129839,'\'(-inf-6.266667]\''
0.500913,0.558682,0.584296,0.697521,0.398751,0.868296,0.991707,0.956153,1.150524,1.312154,1.012864,0.670353,0.723499,0.795165,0.834818,0.974151,0.83637,0.380544,-0.851995,-0.597928,-0.905927,0.736159,0.718839,'\'(14.9-27.8]\'',0.143518,0.745466,0.548146,0.741626,0.417818,0.203161,0.715807,-0.043461,-1.234428,0.957464,-0.578834,-0.549763,-0.601517,0.716683,0.721842,0.672098,0.84093,0.896898,0.841291,-0.230615,0.655386,-0.144973,1.334883,0.274385,1.573461,1.250375,0.988663,1.554769,0.160002,1.594502,1.480953,1.288775,0.552943,0.284494,-0.089557,0.267415,-1.311986,-0.234619,0.08625,0.159036,-0.279254,-0.526553,-0.516572,0.035401,0.327894,0.214694,-0.036152,0.016314,-1.043327,1.504126,-1.043014,-1.12856,-1.099512,-1.123438,-1.086675,-0.733575,-0.510322,-0.383378,-0.327013,0.217307,1.124612,1.427874,1.442343,1.407076,-0.560492,-0.774966,-0.491259,0.752785,0.353385,0.310028,0.226787,0.171961,-0.172101,-0.301653,0.526317,0.618279,0.47713,0.456235,0.559986,0.721901,0.506236,0.539314,0.532221,0.52929,0.544382,0.614705,0.49751,0.496354,0.489887,0.442827,0.538179,0.710911,0.909517,0.127657,'\'(-inf-6.266667]\''
0.510006,0.572517,0.588204,0.704192,0.395009,0.872848,0.982711,0.937576,1.12098,1.28786,0.980688,0.665198,0.743589,0.824282,0.836967,0.978144,0.774354,0.394191,-0.832278,-0.484049,-0.812724,0.741967,0.731168,'\'(14.9-27.8]\'',0.151759,0.541491,0.528721,0.775663,0.376178,0.140036,0.721709,-0.04691,-1.214662,0.958104,-0.583749,-0.549763,-0.613405,0.72279,0.726063,0.671558,0.845419,0.892224,0.853227,-0.165169,0.796519,-0.081735,1.408322,-0.244441,1.098717,1.492713,1.594986,1.689425,0.461973,1.419181,1.555537,1.574156,0.61167,0.257714,-0.070942,0.274485,-1.311986,-0.234496,0.084618,0.158036,-0.277117,-0.527736,-0.517772,0.019422,0.315088,0.222912,-0.015572,0.031339,-1.047319,1.501996,-1.043014,-1.12856,-1.105944,-1.126665,-1.083651,-0.730333,-0.503436,-0.390837,-0.347629,0.230588,1.132136,1.440423,1.431776,1.376989,-0.602243,-0.827502,-0.366363,0.556727,0.365641,0.324242,0.23279,0.222454,-0.103528,-0.237862,0.523967,0.624685,0.443739,0.459645,0.543096,0.7005,0.511598,0.535777,0.525753,0.526812,0.544687,0.599458,0.481944,0.502598,0.48866,0.43955,0.538179,0.731897,0.93784,0.13564,'\'(-inf-6.266667]\''
0.523772,0.590524,0.602104,0.71513,0.401426,0.895854,1.012018,0.967914,1.151646,1.333148,1.003523,0.70351,0.758939,0.858277,0.847714,1.007353,0.798684,0.39889,-0.713512,-0.473938,-0.786226,0.750834,0.745635,'\'(14.9-27.8]\'',0.07759,0.447349,0.511516,0.642919,0.411761,0.051193,0.723003,-0.04888,-1.204413,0.965783,-0.591122,-0.54567,-0.637183,0.724207,0.723073,0.672727,0.839538,0.888953,0.848143,-0.034277,1.078785,0.107979,1.71257,0.304032,1.634066,1.437637,1.925708,1.441236,0.303041,1.594502,1.247255,1.244184,0.588022,0.241754,-0.060767,0.279637,-1.311986,-0.23423,0.085543,0.158742,-0.273766,-0.528191,-0.518141,0.012989,0.3089,0.224232,-0.057087,0.04004,-1.04018,1.435931,-1.045789,-1.122673,-1.102728,-1.120211,-1.05644,-0.697918,-0.499993,-0.409484,-0.371681,0.363396,1.214899,1.452972,1.410641,1.346902,-0.59455,-0.830649,-0.345776,0.513527,0.362577,0.319977,0.23279,0.218468,-0.077981,-0.194429,0.525142,0.615075,0.435391,0.465328,0.543096,0.688271,0.513386,0.534598,0.525753,0.528051,0.547709,0.588461,0.483469,0.507295,0.494794,0.441735,0.547749,0.718562,0.938378,0.149357,'\'(-inf-6.266667]\''
0.524666,0.588242,0.605306,0.7071,0.408058,0.897582,1.010054,0.966604,1.157501,1.329344,1.01498,0.699502,0.764877,0.86212,0.847679,1.004709,0.891958,0.418114,-0.719202,-0.426045,-0.719565,0.742373,0.745207,'\'(14.9-27.8]\'',-0.062506,0.38683,0.481545,0.678658,0.354979,0.028982,0.726412,-0.042476,-1.197824,0.985621,-0.598086,-0.548399,-0.650063,0.727197,0.72149,0.68289,0.837777,0.885681,0.850575,-0.230615,1.078785,-0.018497,1.644377,-0.007264,1.230029,1.817667,1.613359,1.623418,0.461973,1.325676,1.650011,1.253103,0.586008,0.301883,-0.047222,0.281987,-1.311986,-0.232776,0.085257,0.152973,-0.268682,-0.527827,-0.517864,0.015296,0.312855,0.231343,-0.033772,0.063983,-1.05924,1.396956,-1.051338,-1.125616,-1.112376,-1.129892,-1.06551,-0.704401,-0.510322,-0.420673,-0.392297,0.350116,1.214899,1.446697,1.405357,1.326844,-0.648642,-0.844912,-0.224409,0.512578,0.370237,0.331349,0.244796,0.278262,-0.04235,-0.146925,0.531018,0.595855,0.442348,0.474421,0.551541,0.682156,0.516961,0.539314,0.532221,0.533007,0.55299,0.579724,0.495477,0.51182,0.497248,0.442827,0.550483,0.73909,0.957645,0.162527,'\'(-inf-6.266667]\''
0.520009,0.579951,0.613217,0.692979,0.414804,0.903267,1.016694,0.972699,1.172352,1.368578,1.01686,0.704064,0.769373,0.862698,0.834748,1.002082,1.046766,0.417625,-0.724695,-0.420723,-0.723657,0.745901,0.747213,'\'(14.9-27.8]\'',0.117422,0.290446,0.480435,0.709291,0.339837,0.0381,0.731683,-0.036072,-1.186843,0.999059,-0.601363,-0.543624,-0.664924,0.732045,0.737143,0.694221,0.851072,0.886616,0.848806,-0.099723,1.078785,0.107979,1.261444,-0.318559,0.674477,1.470683,1.549052,1.531007,0.318934,1.232172,1.510787,1.342284,0.553013,0.210144,-0.038036,0.283113,-1.311986,-0.232817,0.086637,0.147264,-0.270415,-0.525553,-0.515557,0.007216,0.323277,0.239152,-0.001895,0.104393,-1.107666,1.372987,-1.045789,-1.134448,-1.118808,-1.136347,-1.086675,-0.753024,-0.551642,-0.450509,-0.447272,0.230588,1.086993,1.358855,1.35252,1.236583,-0.668837,-0.859463,-0.079514,0.431876,0.382492,0.345562,0.268808,0.361975,0.028913,-0.065489,0.540421,0.592652,0.475739,0.478968,0.566742,0.679099,0.523217,0.551104,0.543865,0.542917,0.562269,0.584143,0.513139,0.518808,0.502155,0.450474,0.554585,0.761729,0.968778,0.159091,'\'(-inf-6.266667]\''
0.52316,0.580466,0.618182,0.714826,0.424848,0.924462,1.04248,0.999354,1.195675,1.362133,1.056635,0.734091,0.78493,0.891794,0.849295,1.028245,1.084982,0.436762,-0.617166,-0.363252,-0.655541,0.741748,0.749514,'\'(14.9-27.8]\'',-0.239687,0.365536,0.416055,0.605479,0.298196,0.040672,0.733703,-0.046417,-1.170005,0.99266,-0.606278,-0.54226,-0.678794,0.73472,0.73855,0.699887,0.850589,0.886616,0.851459,-0.034277,1.078785,0.171217,1.090961,0.037207,0.623973,1.228345,1.181584,1.567971,0.255361,1.103603,1.585371,1.467138,0.587753,0.26579,-0.02684,0.298671,-1.393951,-0.229663,0.093317,0.155681,-0.27105,-0.527008,-0.517034,0.004254,0.338315,0.244139,0.002679,0.112837,-1.104477,1.220081,-1.043014,-1.137392,-1.102728,-1.129892,-1.086675,-0.769231,-0.575745,-0.465427,-0.505683,0.217307,1.041849,1.30866,1.326102,1.146322,-0.664269,-0.855111,0.002443,0.593755,0.38096,0.345562,0.286818,0.389879,0.044712,0.052593,0.545122,0.592652,0.48826,0.486924,0.576876,0.682156,0.526792,0.55582,0.55292,0.547872,0.567397,0.586403,0.521716,0.523018,0.50829,0.460306,0.558686,0.786003,0.962869,0.194874,'\'(-inf-6.266667]\''
0.531831,0.590058,0.632178,0.781493,0.453882,0.911039,1.020846,0.975895,1.152942,1.331672,1.007485,0.731703,0.781059,0.903304,0.841736,1.027269,0.734943,0.524141,-0.616011,-0.366977,-0.705996,0.749086,0.746588,'\'(14.9-27.8]\'',0.051494,0.363294,0.452685,0.501667,0.394348,-0.047003,0.743771,-0.014396,-1.132669,1.024015,-0.603001,-0.536803,-0.678794,0.742716,0.751212,0.706182,0.864281,0.889887,0.859858,-0.034277,1.219918,0.107979,1.48963,-0.007264,1.068414,1.509236,1.732787,1.832002,0.573226,1.395805,1.764373,1.636583,0.695592,0.41561,-0.007903,0.309945,-1.55788,-0.228167,0.099392,0.162921,-0.270184,-0.526735,-0.516757,-0.001897,0.359261,0.252116,0.012337,0.097741,-1.064507,0.986698,-1.045789,-1.137392,-1.099512,-1.129892,-1.101792,-0.859993,-0.661828,-0.528828,-0.560659,0.164184,0.838703,1.158073,1.241563,1.071104,-0.637824,-0.837206,-0.078338,0.587583,0.387088,0.351248,0.295822,0.421769,0.112613,0.090596,0.549823,0.602262,0.489652,0.494312,0.580254,0.679099,0.533048,0.560536,0.555508,0.552828,0.571121,0.585897,0.52826,0.526225,0.513197,0.459213,0.562787,0.803405,0.967264,0.221739,'\'(-inf-6.266667]\''
0.539593,0.598889,0.63016,0.750531,0.44284,0.924322,1.036089,0.99199,1.1798,1.331943,1.048866,0.734646,0.791838,0.903265,0.868677,1.038511,0.803176,0.501668,-0.567278,-0.374427,-0.663487,0.746151,0.754052,'\'(14.9-27.8]\'',0.247904,0.325189,0.262318,0.220864,0.259584,-0.017778,0.752388,0.007281,-1.114368,1.032974,-0.591532,-0.519068,-0.676813,0.749924,0.757192,0.725067,0.869962,0.895496,0.865605,-0.296061,1.078785,-0.018497,1.502744,0.155796,1.219928,1.773605,1.098903,1.842564,0.461973,1.442557,1.77929,1.672256,0.619447,0.254236,0.003415,0.319694,-1.475915,-0.227328,0.106308,0.172751,-0.267642,-0.525007,-0.515004,-0.007877,0.389582,0.257219,0.005746,0.105047,-1.061181,0.864592,-1.045789,-1.12856,-1.099512,-1.09762,-1.029229,-0.665503,-0.482776,-0.379648,-0.4404,0.482924,1.290139,1.484344,1.452911,1.246612,-0.622518,-0.845717,-0.123434,0.651195,0.402407,0.368305,0.321335,0.461632,0.11026,0.104169,0.553349,0.608669,0.475739,0.5017,0.575187,0.676042,0.538411,0.562894,0.554214,0.555305,0.575608,0.587078,0.524066,0.533213,0.515651,0.461398,0.569623,0.811617,0.98452,0.220998,'\'(-inf-6.266667]\''
0.552323,0.614982,0.643131,0.758538,0.462332,0.949814,1.058959,1.011489,1.198993,1.303729,1.093454,0.75651,0.819684,0.928856,0.907815,1.063421,0.85592,0.510989,-0.465865,-0.26853,-0.599323,0.752864,0.759707,'\'(14.9-27.8]\'',0.169615,0.300533,0.335579,0.455718,0.255041,-0.074123,0.761383,0.046199,-1.083621,1.06305,-0.580472,-0.501333,-0.675822,0.756409,0.762292,0.726686,0.874223,0.903909,0.865605,-0.034277,1.219918,0.234455,1.445042,0.155796,0.876496,1.283421,2.026762,2.053789,0.49376,1.325676,2.12735,1.832783,0.6088,0.317766,0.012895,0.333353,-1.475915,-0.227225,0.119231,0.188468,-0.265446,-0.524825,-0.514819,-0.010281,0.412646,0.262373,-0.024707,0.081228,-1.006683,0.638243,-1.045789,-1.099122,-1.073784,-1.026622,-0.923407,-0.516394,-0.355374,-0.264034,-0.340757,0.947752,1.63624,1.716498,1.616705,1.392033,-0.632936,-0.800756,-0.156961,0.826366,0.420791,0.389626,0.345348,0.520098,0.230935,0.048521,0.562751,0.618279,0.500782,0.506246,0.595455,0.676042,0.54288,0.572326,0.567151,0.565216,0.583483,0.580634,0.548431,0.537566,0.518104,0.463583,0.57099,0.855244,1.012315,0.208901,'\'(-inf-6.266667]\''
0.554748,0.618367,0.630416,0.755857,0.452084,0.923189,1.029035,0.974212,1.136506,1.223724,1.04003,0.75408,0.797292,0.919672,0.900823,1.040427,0.845612,0.517633,-0.553925,-0.46702,-0.742156,0.765197,0.770294,'\'(14.9-27.8]\'',0.106434,0.310619,0.350564,0.421681,0.291382,-0.014271,0.764445,0.049155,-1.079228,1.072009,-0.583749,-0.496558,-0.690683,0.759274,0.769503,0.730103,0.880984,0.904376,0.862731,-0.230615,1.219918,0.044741,1.04375,-0.081382,0.401752,1.294437,1.181584,1.710548,0.573226,1.091915,1.674872,1.618747,0.634346,0.339715,0.023719,0.347613,-1.393951,-0.2253,0.119601,0.181875,-0.262153,-0.525371,-0.515465,-0.002481,0.427094,0.267452,-0.02301,0.10458,-1.030475,0.596003,-1.037466,-1.031414,-0.993383,-0.933033,-0.820609,-0.490462,-0.351931,-0.275223,-0.330449,1.359458,1.67386,1.703949,1.585003,1.392033,-0.659862,-0.828115,-0.074809,0.726201,0.420791,0.386783,0.352851,0.532056,0.154967,0.047164,0.570979,0.627889,0.517478,0.513066,0.607278,0.669927,0.55003,0.580579,0.576206,0.573888,0.590412,0.577902,0.562694,0.543094,0.520558,0.460306,0.576458,0.855432,1.030337,0.214182,'\'(-inf-6.266667]\''
0.563334,0.631664,0.652067,0.760112,0.465431,0.948545,1.056896,1.001691,1.150095,1.239607,1.052616,0.800739,0.819241,0.934565,0.949137,1.070833,0.757298,0.566805,-0.434377,-0.213187,-0.549811,0.772441,0.782853,'\'(14.9-27.8]\'',0.302844,0.307257,0.232903,0.341695,0.165703,-0.042327,0.766307,0.056545,-1.050677,1.081608,-0.584978,-0.495193,-0.695637,0.760659,0.769503,0.737388,0.876411,0.896431,0.863837,-0.099723,1.219918,0.044741,1.500121,0.21509,0.785588,1.437637,2.008388,1.953457,0.430187,1.24386,1.948348,1.913046,0.648343,0.541355,0.042832,0.365595,-1.311986,-0.225689,0.121822,0.183935,-0.25834,-0.52437,-0.514542,0.00833,0.429115,0.269986,-0.039984,0.08362,-0.980591,0.429295,-0.973653,-0.996088,-0.974086,-0.91367,-0.826656,-0.568258,-0.431127,-0.346083,-0.385425,1.027437,1.320235,1.415325,1.363088,1.196467,-0.663949,-0.827585,-0.043634,0.558625,0.417727,0.38394,0.363357,0.529399,0.244717,0.106883,0.573329,0.621482,0.510521,0.518749,0.602211,0.663812,0.554498,0.581758,0.5775,0.575126,0.592671,0.563599,0.558723,0.548621,0.523012,0.461398,0.577825,0.884854,1.045676,0.214346,'\'(-inf-6.266667]\''
0.573056,0.638533,0.661259,0.785163,0.462875,0.951502,1.063825,1.010114,1.169462,1.267425,1.06779,0.79227,0.817654,0.952813,0.980092,1.08694,0.66007,0.603759,-0.373359,-0.358462,-0.624362,0.768444,0.783412,'\'(14.9-27.8]\'',0.083084,0.507869,0.192943,0.288938,0.134661,-0.052847,0.769053,0.076743,-1.040428,1.098246,-0.579243,-0.476094,-0.709507,0.762107,0.771613,0.744672,0.876638,0.90017,0.868257,-0.099723,1.078785,0.044741,1.557823,0.481915,0.937102,1.509236,1.787907,1.805599,0.144108,1.489309,1.809124,1.636583,0.611951,0.279509,0.043396,0.380697,-1.311986,-0.222924,0.126298,0.191176,-0.258398,-0.52528,-0.515373,0.014571,0.442493,0.274982,-0.043438,0.070448,-0.942393,0.295586,-0.926487,-0.954874,-0.925846,-0.894306,-0.850844,-0.639571,-0.506879,-0.409484,-0.4404,0.695417,1.026801,1.170622,1.183442,1.030988,-0.650245,-0.820192,-0.08971,0.512103,0.423854,0.388204,0.385868,0.534714,0.387578,0.096025,0.574504,0.599059,0.507738,0.524432,0.598833,0.65464,0.558967,0.584116,0.578794,0.576365,0.593922,0.541402,0.557103,0.552974,0.529146,0.463583,0.588762,0.934121,1.067524,0.21535,'\'(-inf-6.266667]\''
0.576062,0.64285,0.677369,0.797095,0.495557,0.955395,1.06325,1.014104,1.16653,1.246181,1.07419,0.799439,0.826316,0.963266,0.991931,1.087327,0.775732,0.470325,-0.376968,-0.209461,-0.511251,0.763792,0.780585,'\'(14.9-27.8]\'',0.217687,0.186218,0.228463,0.294043,0.181602,-0.069213,0.773818,0.084132,-1.029447,1.114883,-0.584569,-0.480187,-0.716442,0.766388,0.780407,0.756543,0.883626,0.906246,0.870247,-0.099723,1.219918,-0.018497,1.245707,-0.185147,0.724982,1.45416,1.392878,1.765994,0.461973,1.477621,1.674872,1.574156,0.667188,0.455258,0.054321,0.379022,-1.393951,-0.221244,0.132086,0.19559,-0.255509,-0.524643,-0.514819,0.019306,0.458949,0.284286,-0.013885,0.092819,-0.96703,0.275838,-0.876547,-0.907773,-0.871173,-0.845898,-0.820609,-0.675228,-0.558529,-0.480345,-0.505683,0.58917,0.808607,0.963566,0.987945,0.845452,-0.649764,-0.8216,-0.141864,0.395323,0.426918,0.391047,0.391872,0.432399,0.421529,0.106883,0.581556,0.589448,0.525825,0.530684,0.607278,0.672984,0.563436,0.592369,0.585262,0.582559,0.598745,0.542414,0.56352,0.557499,0.53896,0.465768,0.602433,1.002174,1.100279,0.227582,'\'(-inf-6.266667]\''
0.577366,0.644837,0.683262,0.803279,0.50094,0.986269,1.095192,1.045853,1.211783,1.323497,1.103518,0.817658,0.855204,0.994242,1.030305,1.119628,0.816745,0.655289,-0.258594,-0.14454,-0.490512,0.775594,0.78864,'\'(14.9-27.8]\'',0.181976,0.216478,0.301169,0.455718,0.2081,-0.08441,0.78455,0.106794,-1.04116,1.145599,-0.584569,-0.472683,-0.72734,0.775642,0.78709,0.759691,0.89158,0.903909,0.874888,-0.230615,1.078785,-0.081735,1.683719,0.111325,1.199726,1.746067,1.824654,1.913852,0.191788,1.3023,2.117406,1.565238,0.62904,0.351076,0.054104,0.392722,-1.475915,-0.221285,0.13673,0.193824,-0.254527,-0.525371,-0.515465,0.022387,0.475494,0.296745,0.021533,0.092468,-0.959091,0.186641,-0.83493,-0.860671,-0.835797,-0.803945,-0.787351,-0.678469,-0.568859,-0.476615,-0.526299,0.536047,0.688224,0.850626,0.913974,0.740147,-0.673725,-0.834554,-0.114415,0.199739,0.463685,0.43511,0.418885,0.525413,0.66288,0.22768,0.593309,0.599059,0.571738,0.536935,0.63768,0.685213,0.567011,0.604158,0.60208,0.594948,0.609245,0.552838,0.597224,0.561108,0.540187,0.47123,0.598332,1.042475,1.13161,0.228223,'\'(-inf-6.266667]\''
0.570878,0.636619,0.687778,0.808636,0.511621,0.994856,1.094169,1.041874,1.205512,1.273373,1.119099,0.809456,0.874056,1.003151,1.046088,1.119525,0.87103,0.635943,-0.270595,-0.39518,-0.640256,0.787116,0.805046,'\'(14.9-27.8]\'',0.052868,0.256824,0.256213,0.377433,0.181602,-0.108959,0.786854,0.102853,-1.008217,1.154558,-0.595219,-0.479505,-0.743192,0.778192,0.790431,0.761489,0.897574,0.904844,0.882846,-0.230615,0.937652,-0.144973,0.9231,-0.081382,0.371449,1.090652,1.126464,1.866326,0.509653,1.010098,1.759401,2.091409,0.715222,0.520218,0.070758,0.409609,-1.475915,-0.218848,0.141206,0.192706,-0.250714,-0.525462,-0.515557,0.032621,0.492639,0.302775,0.046506,0.132761,-1.019018,0.242203,-0.787765,-0.792963,-0.736099,-0.71681,-0.705717,-0.620122,-0.537869,-0.457968,-0.529735,0.668855,0.695748,0.80043,0.850569,0.649886,-0.72333,-0.875007,-0.010498,-0.038094,0.477472,0.452167,0.438396,0.680878,0.505901,0.218179,0.603887,0.608669,0.605129,0.540913,0.656259,0.697443,0.574161,0.615948,0.617604,0.607336,0.618708,0.55493,0.615522,0.568411,0.543868,0.47123,0.6038,1.068706,1.150237,0.227411,'\'(-inf-6.266667]\''
0.653506,0.736635,0.704304,0.854363,0.533318,1.022243,1.12192,1.070992,1.238221,1.309851,1.150151,0.834776,0.900308,1.017896,1.088323,1.146334,0.903283,0.74114,-0.180329,-0.074829,-0.419632,0.7839,0.801561,'\'(14.9-27.8]\'',0.231422,0.177252,0.237898,0.404662,0.144504,-0.125325,0.790799,0.106794,-0.985523,1.171196,-0.603821,-0.482915,-0.759044,0.781875,0.794476,0.77417,0.895386,0.912322,0.883067,-0.099723,1.078785,-0.081735,1.605034,0.37815,1.088616,1.630406,1.677666,1.874247,0.303041,1.582814,1.749456,1.814946,0.727321,0.492897,0.079808,0.412271,-1.55788,-0.218479,0.144269,0.198298,-0.247363,-0.52437,-0.514265,0.043529,0.508398,0.308431,-0.158678,0.156339,-1.048853,0.273165,-0.723952,-0.739974,-0.697507,-0.665175,-0.654318,-0.597432,-0.524096,-0.476615,-0.546915,0.58917,0.575365,0.681216,0.702626,0.50948,-0.743044,-0.883808,0.122633,0.066818,0.466749,0.436532,0.435394,0.607796,0.333459,0.253468,0.603887,0.583042,0.596781,0.547165,0.649503,0.7005,0.577736,0.615948,0.61631,0.607336,0.62002,0.557122,0.603578,0.573279,0.546321,0.46686,0.607901,1.070151,1.12691,0.243832,'\'(-inf-6.266667]\''
0.584499,0.644715,0.698987,0.865138,0.515551,1.034716,1.146669,1.092341,1.249507,1.280633,1.18136,0.874001,0.898997,1.036692,1.090577,1.168828,0.907458,0.687786,-0.11003,-0.218508,-0.491822,0.782963,0.805507,'\'(14.9-27.8]\'',0.048747,0.210874,0.195718,0.283832,0.140718,-0.040456,0.795596,0.084625,-0.948187,1.157118,-0.61529,-0.489054,-0.777868,0.788076,0.799225,0.768954,0.901153,0.916996,0.89235,-0.296061,1.219918,-0.018497,1.872562,-0.096205,0.613872,2.462066,1.953268,2.024745,0.414294,0.904906,2.271546,1.841701,0.742513,0.552407,0.083214,0.430155,-1.475915,-0.220302,0.145329,0.2013,-0.247999,-0.521096,-0.510943,0.062822,0.522086,0.307921,0.022579,0.142474,-1.007854,0.197715,-0.690659,-0.686985,-0.652482,-0.607085,-0.596872,-0.561775,-0.527539,-0.51764,-0.591582,0.682136,0.567841,0.599648,0.581101,0.384117,-0.716839,-0.888457,0.026755,0.094827,0.474408,0.443639,0.4474,0.567933,0.451446,0.281971,0.602712,0.599059,0.568955,0.553416,0.639369,0.706615,0.581311,0.61359,0.612429,0.604858,0.623256,0.550848,0.587949,0.582587,0.546321,0.463583,0.61337,1.018354,1.12959,0.286947,'\'(-inf-6.266667]\''
0.586234,0.643414,0.710197,0.866095,0.536642,1.060341,1.172869,1.123012,1.278829,1.361793,1.185577,0.900489,0.923307,1.061851,1.124461,1.199279,0.810418,0.778111,-0.012155,-0.132833,-0.468026,0.793423,0.81011,'\'(14.9-27.8]\'',0.205326,0.263548,0.220693,0.394451,0.125576,-0.18845,0.80355,0.122066,-0.918904,1.194233,-0.609146,-0.47473,-0.783812,0.793616,0.810832,0.780735,0.912516,0.918398,0.894339,-0.230615,1.219918,-0.018497,2.0378,0.452268,1.745177,1.944344,2.026762,1.958737,0.414294,1.3023,1.993098,1.814946,0.761253,0.569797,0.095254,0.44241,-1.475915,-0.219483,0.146692,0.195531,-0.249328,-0.524552,-0.51445,0.075128,0.538576,0.32204,0.075511,0.156666,-1.01082,0.1926,-0.629621,-0.642828,-0.584946,-0.55545,-0.545473,-0.542326,-0.544755,-0.577312,-0.660302,0.615732,0.447458,0.430238,0.38032,0.173508,-0.706742,-0.872578,0.041264,0.167458,0.486664,0.459274,0.462408,0.550659,0.48943,0.340333,0.612114,0.589448,0.59539,0.561941,0.651192,0.703557,0.587567,0.624201,0.621485,0.61353,0.630124,0.544843,0.602243,0.588372,0.556136,0.473414,0.621572,1.023681,1.135758,0.303676,'\'(-inf-6.266667]\''
0.594439,0.653497,0.714265,0.845695,0.541193,1.055293,1.161978,1.112866,1.256182,1.291501,1.185492,0.900714,0.924658,1.046431,1.12723,1.182025,0.985229,0.768762,-0.103096,-0.090793,-0.392851,0.794266,0.818954,'\'(14.9-27.8]\'',-0.160024,0.244496,0.176848,0.205548,0.149803,-0.093762,0.807306,0.136845,-0.888157,1.21215,-0.610784,-0.478823,-0.781831,0.796418,0.814174,0.790267,0.912942,0.915126,0.893455,-0.296061,1.078785,-0.208211,1.138171,0.600504,0.38155,1.16776,1.319385,1.821441,0.191788,0.975034,1.983154,1.743601,0.645684,0.438023,0.089034,0.451498,-1.475915,-0.219524,0.148257,0.191234,-0.248981,-0.525189,-0.515096,0.092531,0.563664,0.329517,0.071405,0.152981,-0.985695,0.137065,-0.593553,-0.583951,-0.520625,-0.481224,-0.463839,-0.412667,-0.431127,-0.502722,-0.577839,0.801663,0.650604,0.555727,0.417306,0.228668,-0.719724,-0.869507,0.074988,0.053051,0.501983,0.476331,0.480417,0.651645,0.702545,0.40141,0.620341,0.605465,0.60652,0.569329,0.657948,0.697443,0.597399,0.633633,0.627953,0.622202,0.637541,0.541571,0.613171,0.595589,0.55859,0.479969,0.621572,1.024197,1.147808,0.309837,'\'(-inf-6.266667]\''
0.602813,0.661298,0.730791,0.89057,0.556583,1.062703,1.182334,1.125283,1.255608,1.256537,1.201214,0.930406,0.917827,1.056954,1.103582,1.197504,0.901802,0.815939,-0.068426,-0.029596,-0.336307,0.81097,0.838681,'\'(14.9-27.8]\'',0.121542,0.200787,0.099702,0.055786,0.111191,-0.13491,0.818889,0.17133,-0.839108,1.266543,-0.618567,-0.482233,-0.795701,0.805767,0.82754,0.800969,0.926946,0.920268,0.89655,-0.165169,1.078785,-0.208211,1.654868,0.333679,0.573468,2.170159,1.447999,2.053789,0.49376,1.337364,2.142267,1.79711,0.742185,0.517744,0.087215,0.460772,-1.55788,-0.222084,0.150545,0.189292,-0.247826,-0.524643,-0.514635,0.108402,0.581018,0.335435,0.059587,0.129248,-0.929226,0.035737,-0.549162,-0.551569,-0.507761,-0.465088,-0.457792,-0.467772,-0.486219,-0.528828,-0.581275,0.615732,0.402314,0.354945,0.295781,0.143421,-0.703857,-0.850298,0.05891,0.14752,0.509643,0.484859,0.489422,0.71144,0.659855,0.395981,0.627393,0.586245,0.621824,0.575012,0.669771,0.694385,0.601867,0.639528,0.639596,0.629635,0.644501,0.539075,0.627498,0.601145,0.564724,0.482154,0.624306,1.009305,1.159707,0.303144,'\'(-inf-6.266667]\''
0.613784,0.674619,0.7273,0.884806,0.546701,1.066048,1.195254,1.142891,1.277963,1.257951,1.233702,0.951478,0.910731,1.058432,1.073531,1.207628,0.866699,0.738744,-0.056532,-0.222233,-0.46975,0.82143,0.850353,'\'(14.9-27.8]\'',0.212193,0.135784,0.102477,0.185126,0.057437,-0.117142,0.824255,0.188572,-0.829591,1.284461,-0.616109,-0.473366,-0.802636,0.810017,0.834223,0.811401,0.931747,0.922137,0.902518,-0.230615,0.937652,-0.208211,1.560446,0.200267,1.118919,1.569821,1.705227,1.882168,0.557333,1.103603,1.913542,1.770355,0.880114,0.984632,0.119511,0.463763,-1.475915,-0.220528,0.153439,0.195531,-0.247306,-0.524825,-0.514819,0.120607,0.589333,0.336803,0.031646,0.140036,-0.929975,0.046197,-0.490898,-0.513299,-0.488464,-0.455407,-0.454768,-0.516394,-0.555085,-0.595959,-0.595018,0.350116,0.131453,0.097693,0.089717,0.018058,-0.686387,-0.856227,-0.019909,0.240565,0.505047,0.476331,0.478916,0.633043,0.551953,0.319974,0.626218,0.586245,0.599564,0.581264,0.661326,0.7005,0.605443,0.63717,0.638302,0.628396,0.645905,0.547913,0.614092,0.605871,0.568404,0.478876,0.633876,0.991869,1.167508,0.323114,'\'(-inf-6.266667]\''
0.620282,0.682616,0.749815,0.913308,0.598885,1.081711,1.21417,1.16769,1.320322,1.279192,1.286546,0.94605,0.92249,1.067041,1.057936,1.21479,1.005984,0.799671,-0.057599,-0.081214,-0.342798,0.820712,0.853805,'\'(14.9-27.8]\'',0.081711,0.28148,-0.051815,-0.010585,-0.065971,-0.122987,0.832398,0.195469,-0.802504,1.309418,-0.627579,-0.482915,-0.816507,0.817697,0.842137,0.820844,0.941434,0.93055,0.898539,-0.230615,0.937652,-0.208211,1.673228,0.363327,0.664376,2.170159,1.411252,2.127717,0.700372,1.150355,2.336186,1.725765,0.919902,0.874847,0.159102,0.460456,-1.639845,-0.21764,0.158925,0.20442,-0.244821,-0.525098,-0.51528,0.128551,0.610497,0.346202,0.059307,0.158706,-0.943678,0.073161,-0.4798,-0.469142,-0.446656,-0.439271,-0.445698,-0.542326,-0.603291,-0.66682,-0.646558,0.336835,0.041165,-0.015247,-0.031808,-0.077217,-0.646879,-0.834912,-0.094808,0.167933,0.505047,0.477752,0.48642,0.585207,0.768093,0.332189,0.627393,0.570228,0.605129,0.586947,0.659637,0.697443,0.60723,0.639528,0.638302,0.628396,0.647461,0.532227,0.613648,0.609623,0.573312,0.485431,0.635243,0.972095,1.188665,0.310764,'\'(-inf-6.266667]\''
0.624023,0.690712,0.768359,0.91131,0.610956,1.07029,1.202484,1.152073,1.300886,1.209299,1.290239,0.932826,0.911653,1.051373,1.078401,1.202161,1.057291,0.74807,-0.135863,0.022022,-0.241471,0.826769,0.864063,'\'(14.9-27.8]\'',-0.043277,0.289325,-0.027394,0.054084,-0.062186,-0.129299,0.843539,0.205322,-0.798112,1.322216,-0.628398,-0.484962,-0.815516,0.82818,0.853393,0.829298,0.953223,0.939431,0.919316,-0.230615,0.937652,-0.144973,1.636508,0.392974,0.9169,1.889267,1.503119,2.193725,0.54144,1.337364,2.241713,2.064655,0.737828,0.652068,0.16855,0.456407,-1.72181,-0.219913,0.164293,0.201889,-0.24355,-0.524098,-0.514358,0.146207,0.637455,0.354198,0.061455,0.174277,-0.955503,0.082711,-0.418762,-0.413209,-0.366255,-0.345682,-0.361041,-0.474255,-0.541312,-0.629525,-0.615634,0.41652,0.033641,-0.040345,-0.095212,-0.142406,-0.624441,-0.803158,-0.226174,0.085807,0.521898,0.497651,0.504429,0.703467,0.850112,0.362049,0.641497,0.557415,0.656607,0.594335,0.686661,0.685213,0.61438,0.654855,0.657707,0.643262,0.658023,0.517688,0.647225,0.616009,0.578219,0.49417,0.639344,0.945462,1.189549,0.320469,'\'(-inf-6.266667]\''
