@relation '2025-08-MD-weka.filters.unsupervised.attribute.Discretize-B3-M-1.0-R25-precision6-weka.filters.unsupervised.attribute.Reorder-R1,2,3,4,5,6,7,8,9,10,11,12,13,14,15,16,17,18,19,20,21,22,23,24,26,27,28,29,30,31,32,33,34,35,36,37,38,39,40,41,42,43,44,45,46,47,48,49,50,51,52,53,54,55,56,57,58,59,60,61,62,63,64,65,66,67,68,69,70,71,72,73,74,75,76,77,78,79,80,81,82,83,84,85,86,87,88,89,90,91,92,93,94,95,96,97,98,99,100,101,102,103,104,105,106,107,108,109,110,111,112,113,114,115,116,117,118,119,120,121,122,123,124,125,126,127,25-weka.filters.unsupervised.attribute.Discretize-B3-M-1.0-R25-precision6-weka.filters.unsupervised.attribute.Discretize-B3-M-1.0-Rlast-precision6-weka.filters.unsupervised.attribute.Discretize-B3-M-1.0-Rlast-precision6-weka.filters.unsupervised.attribute.Discretize-B3-M-1.0-R127-precision6-weka.filters.unsupervised.attribute.Discretize-B3-M-1.0-R127-precision6-weka.filters.unsupervised.attribute.Reorder-R1,2,3,4,5,6,7,8,9,10,11,12,13,14,15,16,17,18,19,20,21,22,23,24,25,26,27,28,29,30,31,32,33,34,35,36,37,38,39,40,41,42,43,44,45,46,47,48,49,50,51,52,53,54,55,56,57,58,59,60,61,62,63,64,65,66,67,68,69,70,71,72,73,74,75,76,77,78,79,80,81,82,83,84,85,86,87,88,89,90,91,92,93,94,95,96,97,98,99,100,101,102,103,104,105,106,107,108,109,110,111,112,113,114,115,116,117,118,119,120,121,122,123,124,125,127,126-weka.filters.unsupervised.attribute.Discretize-B3-M-1.0-R127-precision6-weka.filters.unsupervised.attribute.Discretize-B3-M-1.0-R126-precision6-weka.filters.unsupervised.attribute.Reorder-R1,2,3,4,5,6,7,8,9,10,11,12,13,14,15,16,17,18,19,20,21,22,23,24,25,26,27,28,29,30,31,32,33,34,35,36,37,38,39,40,41,42,43,44,45,46,47,48,49,50,51,52,53,54,55,56,57,58,59,60,61,62,63,64,65,66,67,68,69,70,71,72,73,74,75,76,77,78,79,80,81,82,83,84,85,86,87,88,89,90,91,92,93,94,95,96,97,98,99,100,101,102,103,104,105,106,107,108,109,110,111,112,113,114,115,116,117,118,119,120,121,122,123,124,125,127,126-weka.filters.unsupervised.attribute.Remove-R1-weka.filters.unsupervised.attribute.Remove-R57,93,121-weka.filters.unsupervised.attribute.Standardize-weka.filters.unsupervised.attribute.Remove-R84-86,122-weka.filters.unsupervised.attribute.ReplaceMissingValues-weka.filters.unsupervised.instance.RemoveRange-V-R1-560-weka.filters.unsupervised.attribute.Remove-V-R24,27,29,26,30,31,33,99,102,109,62,63,65,68,69,6,5,9,82,83,86'

@attribute UEMPMEAN {'\'(-inf-14.9]\'','\'(14.9-27.8]\'','\'(27.8-inf)\''}
@attribute UEMP15OV numeric
@attribute UEMP27OV numeric
@attribute UEMP5TO14 numeric
@attribute CLAIMSx numeric
@attribute PAYEMS numeric
@attribute CES1021000001 numeric
@attribute CPIAUCSL numeric
@attribute CPIMEDSL numeric
@attribute PCEPI numeric
@attribute M1SL numeric
@attribute M2SL numeric
@attribute BOGMBASE numeric
@attribute BUSLOANS numeric
@attribute REALLN numeric
@attribute INDPRO numeric
@attribute RETAILx numeric
@attribute IPCONGD numeric
@attribute AAA numeric
@attribute BAA numeric
@attribute T10YFFM numeric

@data
'\'(-inf-14.9]\'',-1.383827,-1.103204,-2.358978,-1.646155,-3.395097,-4.866976,-1.578646,-1.213464,-1.663206,-0.499087,-0.935794,-0.692391,-1.069879,-0.934333,-2.328709,-1.163298,-3.157459,-1.77075,-1.972839,0.009851
'\'(14.9-27.8]\'',-0.611815,-0.499792,-1.054439,-0.285111,-1.738937,0.316104,-1.308209,-1.127649,-1.383484,-0.471866,-0.888578,-0.666682,-1.033752,-0.923614,-1.700958,-1.070886,-2.024382,-0.980097,-0.986718,0.348671
'\'(14.9-27.8]\'',-0.67786,-0.552789,-1.060043,-0.32308,-1.732309,0.251681,-1.308327,-1.12708,-1.383026,-0.471763,-0.888393,-0.667086,-1.033743,-0.923443,-1.68504,-1.070207,-2.014511,-0.972638,-0.979846,0.342396
'\'(14.9-27.8]\'',-0.715046,-0.592158,-1.139615,-0.428813,-1.72202,0.250949,-1.308679,-1.126512,-1.382721,-0.471702,-0.888141,-0.667144,-1.033854,-0.923333,-1.673104,-1.069429,-2.014511,-0.976367,-0.99359,0.129065
'\'(-inf-14.9]\'',-0.809951,-0.629257,-1.317813,-0.493963,-1.712331,0.259002,-1.308562,-1.126512,-1.381805,-0.471702,-0.887989,-0.666913,-1.033325,-0.92316,-1.655195,-1.069371,-1.99313,-0.939073,-0.990154,0.110242
'\'(-inf-14.9]\'',-0.851022,-0.671654,-1.23824,-0.491443,-1.705103,0.294142,-1.307857,-1.125944,-1.381561,-0.471497,-0.887636,-0.666913,-1.0324,-0.922994,-1.64226,-1.068635,-1.986552,-0.88686,-0.955794,0.267103
'\'(-inf-14.9]\'',-0.852132,-0.692096,-1.285311,-0.438576,-1.700968,0.330745,-1.307034,-1.125376,-1.380218,-0.471395,-0.887316,-0.666798,-1.031368,-0.922854,-1.641268,-1.067773,-1.99313,-0.853294,-0.928307,-0.021521
'\'(-inf-14.9]\'',-0.893202,-0.732223,-1.191169,-0.415243,-1.697086,0.406149,-1.306564,-1.125376,-1.379241,-0.471292,-0.887131,-0.666509,-1.03072,-0.922739,-1.66216,-1.067805,-1.975037,-0.849565,-0.914563,-0.03407
'\'(-inf-14.9]\'',-0.893202,-0.742065,-1.1172,-0.303511,-1.711857,-0.02065,-1.306211,-1.124807,-1.37857,-0.471251,-0.886929,-0.666567,-1.030195,-0.922645,-1.691009,-1.067195,-1.973388,-0.864483,-0.911127,-0.03407
'\'(-inf-14.9]\'',-0.889872,-0.769321,-0.935641,-0.365215,-1.708953,-0.126801,-1.305388,-1.124239,-1.377349,-0.471435,-0.886879,-0.666567,-1.029983,-0.922561,-1.692005,-1.068451,-1.978326,-0.830917,-0.880203,-0.040345
'\'(-inf-14.9]\'',-0.896532,-0.768564,-0.916588,-0.18579,-1.711163,-0.104106,-1.304213,-1.124239,-1.376219,-0.471538,-0.886912,-0.666567,-1.029797,-0.922454,-1.697975,-1.067757,-1.984903,-0.81227,-0.845844,-0.272499
'\'(-inf-14.9]\'',-0.841587,-0.745851,-1.014093,-0.006027,-1.702452,0.118444,-1.304213,-1.123671,-1.375914,-0.471558,-0.886811,-0.666451,-1.029442,-0.922363,-1.693001,-1.070276,-2.014511,-0.815999,-0.852716,-0.285048
'\'(-inf-14.9]\'',-0.875997,-0.753422,-1.107114,-0.37539,-1.685408,0.18067,-1.303508,-1.123671,-1.375365,-0.471661,-0.886694,-0.666104,-1.028706,-0.922152,-1.642263,-1.070707,-1.9701,-0.80854,-0.845844,-0.178382
'\'(-inf-14.9]\'',-0.878772,-0.754936,-1.193411,-0.355578,-1.682252,0.118444,-1.303978,-1.123102,-1.375639,-0.47164,-0.886626,-0.666567,-1.028291,-0.922086,-1.61938,-1.06821,-1.925688,-0.797352,-0.825228,-0.159559
'\'(-inf-14.9]\'',-0.919842,-0.782192,-1.205739,-0.381132,-1.674709,0.154316,-1.303508,-1.122534,-1.375151,-0.471661,-0.886593,-0.667202,-1.028095,-0.922044,-1.627337,-1.067857,-1.942136,-0.815999,-0.825228,-0.291322
'\'(-inf-14.9]\'',-0.854352,-0.773863,-1.109355,-0.20158,-1.676571,0.14187,-1.303508,-1.121966,-1.374876,-0.471681,-0.886441,-0.66726,-1.02781,-0.921993,-1.635298,-1.067962,-1.940492,-0.842106,-0.856151,-0.360341
'\'(-inf-14.9]\'',-0.889317,-0.780677,-1.241602,-0.245338,-1.66524,0.168957,-1.30198,-1.121397,-1.373167,-0.471722,-0.886307,-0.667144,-1.027195,-0.921967,-1.64226,-1.06546,-1.930621,-0.857024,-0.873331,-0.391713
'\'(-inf-14.9]\'',-0.944263,-0.812476,-1.160909,-0.162307,-1.675908,0.11698,-1.301627,-1.121397,-1.372679,-0.471722,-0.886172,-0.667144,-1.026728,-0.921972,-1.643255,-1.066922,-1.922399,-0.853294,-0.845844,-0.303871
'\'(-inf-14.9]\'',-0.912627,-0.807176,-1.03987,-0.141606,-1.679916,0.089161,-1.301157,-1.121397,-1.372465,-0.471722,-0.885936,-0.666971,-1.026155,-0.921989,-1.654199,-1.067053,-1.932266,-0.857024,-0.852716,-0.096815
'\'(-inf-14.9]\'',-0.875442,-0.804148,-1.037628,-0.084228,-1.681242,-0.049201,-1.301862,-1.120829,-1.37161,-0.471599,-0.885633,-0.666682,-1.026106,-0.921984,-1.657186,-1.06802,-1.945425,-0.871942,-0.866459,-0.197206
'\'(-inf-14.9]\'',-0.872112,-0.796577,-0.922192,0.044277,-1.682315,0.095018,-1.301157,-1.120829,-1.370817,-0.471374,-0.885162,-0.666798,-1.026194,-0.921959,-1.658178,-1.067694,-1.942136,-0.920425,-0.914563,-0.103089
'\'(-inf-14.9]\'',-0.841587,-0.754179,-1.005127,0.008585,-1.683735,0.062074,-1.301157,-1.120261,-1.370542,-0.471395,-0.88491,-0.667029,-1.0261,-0.921927,-1.667134,-1.067784,-1.948718,-0.931614,-0.938615,0.13534
'\'(-inf-14.9]\'',-0.726701,-0.678468,-0.927796,0.10786,-1.686418,0.054022,-1.299512,-1.120261,-1.369993,-0.471456,-0.884725,-0.666913,-1.025946,-0.92188,-1.668126,-1.066943,-1.93391,-0.912966,-0.904255,0.273377
'\'(-inf-14.9]\'',-0.707831,-0.690582,-0.832533,0.148406,-1.692131,-0.025774,-1.299159,-1.119692,-1.368375,-0.471456,-0.884489,-0.666798,-1.025751,-0.921879,-1.680066,-1.06832,-1.960229,-0.909237,-0.914563,0.317298
'\'(-inf-14.9]\'',-0.752786,-0.687554,-0.719339,0.095104,-1.699043,-0.086537,-1.298807,-1.119124,-1.368283,-0.471497,-0.884237,-0.667086,-1.025229,-0.921804,-1.695984,-1.069014,-1.9701,-0.894319,-0.907691,0.549453
'\'(-inf-14.9]\'',-0.649555,-0.622443,-0.709252,0.133391,-1.700905,-0.127533,-1.298454,-1.119124,-1.368192,-0.471415,-0.883951,-0.667491,-1.025314,-0.921766,-1.694988,-1.06894,-1.981615,-0.905507,-0.907691,0.881998
'\'(-inf-14.9]\'',-0.600715,-0.603515,-0.787704,0.381801,-1.704882,-0.172189,-1.298454,-1.118556,-1.367764,-0.471313,-0.883547,-0.667895,-1.02542,-0.921734,-1.695984,-1.069277,-1.973388,-0.924155,-0.917999,0.160437
'\'(-inf-14.9]\'',-0.574629,-0.581559,-0.710373,0.144506,-1.701663,-0.184634,-1.298454,-1.118556,-1.368039,-0.471251,-0.883244,-0.667895,-1.025295,-0.921667,-1.691009,-1.068283,-1.973388,-0.942802,-0.935179,0.46161
'\'(14.9-27.8]\'',-0.499704,-0.499792,-0.765289,0.143529,-1.702673,-0.221238,-1.298807,-1.117988,-1.368314,-0.47121,-0.882975,-0.667838,-1.025096,-0.921651,-1.674096,-1.069965,-1.940492,-0.931614,-0.938615,0.819253
'\'(14.9-27.8]\'',-0.450863,-0.456637,-0.759685,0.029426,-1.697654,-0.220506,-1.298454,-1.117988,-1.368039,-0.471087,-0.882588,-0.667838,-1.025193,-0.921615,-1.661165,-1.068562,-1.924044,-0.924155,-0.938615,0.467885
'\'(14.9-27.8]\'',-0.470288,-0.404397,-0.774255,-0.09509,-1.691626,-0.20074,-1.298454,-1.117419,-1.367825,-0.471046,-0.882234,-0.667606,-1.0248,-0.921476,-1.649225,-1.067857,-1.907596,-0.901778,-0.931743,0.731411
'\'(14.9-27.8]\'',-0.370942,-0.356699,-0.844861,-0.02308,-1.687018,-0.200008,-1.297514,-1.117419,-1.366788,-0.471046,-0.882016,-0.667433,-1.02464,-0.921385,-1.639277,-1.067931,-1.894436,-0.871942,-0.911127,1.107878
'\'(14.9-27.8]\'',-0.471398,-0.425596,-0.810118,-0.159922,-1.681494,-0.185366,-1.297279,-1.116851,-1.366391,-0.470923,-0.881679,-0.667375,-1.024547,-0.92132,-1.63132,-1.066879,-1.884565,-0.857024,-0.904255,0.662392
'\'(14.9-27.8]\'',-0.536889,-0.467236,-0.910985,-0.100813,-1.678654,-0.168529,-1.296809,-1.116283,-1.365841,-0.470862,-0.881359,-0.667202,-1.024406,-0.921266,-1.632311,-1.066711,-1.90924,-0.857024,-0.900819,0.700039
'\'(14.9-27.8]\'',-0.564639,-0.48465,-0.921071,-0.203923,-1.674424,-0.202936,-1.296809,-1.116283,-1.365872,-0.470801,-0.88109,-0.666971,-1.024149,-0.921222,-1.615402,-1.064971,-1.869762,-0.868212,-0.897383,0.423964
'\'(14.9-27.8]\'',-0.616255,-0.527048,-0.942365,-0.213635,-1.667481,-0.199276,-1.296809,-1.116283,-1.365841,-0.470657,-0.880703,-0.666682,-1.023957,-0.921151,-1.601471,-1.064277,-1.843443,-0.879401,-0.904255,0.216907
'\'(14.9-27.8]\'',-0.63124,-0.548246,-1.047715,-0.276054,-1.663378,-0.227095,-1.296456,-1.115714,-1.365719,-0.470575,-0.88035,-0.66622,-1.023133,-0.920995,-1.593514,-1.06424,-1.840154,-0.868212,-0.907691,0.467885
'\'(14.9-27.8]\'',-0.70117,-0.596701,-1.063405,-0.257738,-1.662778,-0.227827,-1.296104,-1.115714,-1.364803,-0.470575,-0.880013,-0.666624,-1.022903,-0.92086,-1.601475,-1.063389,-1.851669,-0.868212,-0.914563,0.593374
'\'(14.9-27.8]\'',-0.696175,-0.589887,-1.111597,-0.286463,-1.653404,-0.234415,-1.295281,-1.115146,-1.363521,-0.470473,-0.879576,-0.667086,-1.023048,-0.920746,-1.586548,-1.063378,-1.841798,-0.868212,-0.917999,0.430238
'\'(14.9-27.8]\'',-0.741686,-0.6232,-1.188928,-0.309866,-1.650658,-0.251253,-1.294576,-1.114578,-1.36288,-0.470411,-0.879071,-0.666971,-1.02276,-0.920615,-1.581574,-1.061696,-1.830283,-0.879401,-0.928307,0.060046
'\'(-inf-14.9]\'',-0.763886,-0.635313,-1.126166,-0.324647,-1.640337,-0.273215,-1.294105,-1.114578,-1.362331,-0.470329,-0.878667,-0.66674,-1.022218,-0.920447,-1.579587,-1.061144,-1.817124,-0.901778,-0.935179,0.047498
'\'(14.9-27.8]\'',-0.757226,-0.632285,-1.097027,-0.234172,-1.639517,-0.281268,-1.293753,-1.114009,-1.362026,-0.470248,-0.878331,-0.666682,-1.021845,-0.920258,-1.580582,-1.06045,-1.808898,-0.920425,-0.942051,0.329847
'\'(14.9-27.8]\'',-0.787751,-0.673169,-1.130649,-0.205709,-1.639012,-0.330317,-1.294105,-1.114009,-1.361721,-0.470288,-0.878028,-0.666451,-1.020978,-0.920015,-1.58257,-1.061769,-1.818768,-0.920425,-0.935179,0.154163
'\'(-inf-14.9]\'',-0.804401,-0.679225,-1.084699,-0.218933,-1.635792,-0.382294,-1.293988,-1.113441,-1.361995,-0.470309,-0.877775,-0.66622,-1.02075,-0.919824,-1.573617,-1.060161,-1.79245,-0.898048,-0.924871,0.198084
'\'(-inf-14.9]\'',-0.786641,-0.655755,-0.977108,-0.21017,-1.632889,-0.342762,-1.293283,-1.113441,-1.361293,-0.470288,-0.877439,-0.666278,-1.020507,-0.919661,-1.572622,-1.059519,-1.810546,-0.894319,-0.921435,0.041223
'\'(-inf-14.9]\'',-0.778316,-0.706481,-1.028662,-0.232755,-1.62847,-0.364724,-1.291637,-1.113441,-1.358912,-0.47035,-0.877085,-0.66622,-1.01995,-0.919466,-1.566652,-1.059209,-1.800676,-0.905507,-0.931743,0.060046
'\'(-inf-14.9]\'',-0.819387,-0.723895,-1.082458,-0.215468,-1.626482,-0.382294,-1.292107,-1.112873,-1.359401,-0.470268,-0.876698,-0.666047,-1.019362,-0.919263,-1.565656,-1.057574,-1.803965,-0.920425,-0.945487,0.028674
'\'(-inf-14.9]\'',-0.803291,-0.773863,-1.158668,-0.239642,-1.626008,-0.431343,-1.292107,-1.112873,-1.359065,-0.470145,-0.876261,-0.66622,-1.018928,-0.919056,-1.561678,-1.057022,-1.794094,-0.931614,-0.955794,-0.002698
'\'(-inf-14.9]\'',-0.793856,-0.720866,-1.052198,-0.194964,-1.626892,-0.456966,-1.292107,-1.112304,-1.359248,-0.470043,-0.875773,-0.665642,-1.018634,-0.918875,-1.561678,-1.057043,-1.787516,-0.935343,-0.969538,-0.03407
'\'(-inf-14.9]\'',-0.763886,-0.695125,-0.960297,-0.221785,-1.624146,-0.468679,-1.291402,-1.111736,-1.358058,-0.46994,-0.875352,-0.666047,-1.018356,-0.918654,-1.554716,-1.056596,-1.767779,-0.946532,-0.972974,-0.046619
'\'(-inf-14.9]\'',-0.755561,-0.654998,-0.926675,-0.26767,-1.620516,-0.470143,-1.290932,-1.111736,-1.357539,-0.469817,-0.874898,-0.666393,-1.01815,-0.918435,-1.543768,-1.057401,-1.749683,-0.953991,-0.979846,-0.040345
'\'(-inf-14.9]\'',-0.783311,-0.653484,-0.945728,-0.302782,-1.617676,-0.461358,-1.29058,-1.111736,-1.357936,-0.469756,-0.874427,-0.666278,-1.017971,-0.918274,-1.537802,-1.056554,-1.743105,-0.953991,-0.983282,-0.021521
'\'(-inf-14.9]\'',-0.792191,-0.659541,-0.990557,-0.275643,-1.60947,-0.432807,-1.290932,-1.111736,-1.357966,-0.469654,-0.873989,-0.666104,-1.017454,-0.918072,-1.528846,-1.056092,-1.736523,-0.946532,-0.986718,0.053772
'\'(-inf-14.9]\'',-0.744461,-0.648941,-1.064526,-0.289357,-1.608333,-0.422558,-1.29058,-1.111168,-1.357172,-0.46951,-0.873518,-0.665989,-1.017136,-0.917798,-1.51691,-1.05677,-1.733234,-0.942802,-0.99359,-0.03407
'\'(-inf-14.9]\'',-0.794411,-0.728437,-0.953573,-0.302492,-1.606976,-0.410113,-1.289404,-1.110599,-1.356104,-0.46951,-0.873131,-0.6657,-1.016397,-0.917425,-1.513923,-1.055976,-1.723364,-0.939073,-0.997026,0.009851
'\'(-inf-14.9]\'',-0.792746,-0.692096,-0.919951,-0.334031,-1.602715,-0.414505,-1.288464,-1.110599,-1.355127,-0.469326,-0.872677,-0.665353,-1.016125,-0.917148,-1.517906,-1.05473,-1.728301,-0.927884,-0.997026,0.009851
'\'(-inf-14.9]\'',-0.768326,-0.712538,-1.075733,-0.288848,-1.599054,-0.420362,-1.287759,-1.110031,-1.354456,-0.469223,-0.872256,-0.665469,-1.016112,-0.91694,-1.515915,-1.054867,-1.715142,-0.916696,-1.000462,-0.297597
'\'(-inf-14.9]\'',-0.793301,-0.683768,-0.991678,-0.293926,-1.593752,-0.428415,-1.288111,-1.110031,-1.354547,-0.469182,-0.871852,-0.665296,-1.015685,-0.916732,-1.505966,-1.055135,-1.710204,-0.909237,-0.997026,-0.241127
'\'(-inf-14.9]\'',-0.792191,-0.705724,-1.061164,-0.307332,-1.587281,-0.432807,-1.287759,-1.110031,-1.353601,-0.46906,-0.871465,-0.66518,-1.014957,-0.916533,-1.499001,-1.053253,-1.698689,-0.905507,-1.000462,-0.234852
'\'(-inf-14.9]\'',-0.801626,-0.712538,-0.989436,-0.333246,-1.588165,-0.446717,-1.287406,-1.109463,-1.352899,-0.468855,-0.870927,-0.664776,-1.013934,-0.916327,-1.494027,-1.054493,-1.697045,-0.901778,-0.997026,-0.216029
'\'(-inf-14.9]\'',-0.827712,-0.736008,-1.005127,-0.238282,-1.58482,-0.435004,-1.286231,-1.109463,-1.352167,-0.468916,-0.870641,-0.66414,-1.012777,-0.916161,-1.496018,-1.052101,-1.687179,-0.894319,-0.99359,-0.14701
'\'(-inf-14.9]\'',-0.799961,-0.725409,-1.069009,-0.345581,-1.580843,-0.457698,-1.285526,-1.108895,-1.351129,-0.468834,-0.870304,-0.664544,-1.012474,-0.915918,-1.487065,-1.05268,-1.670726,-0.879401,-1.000462,-0.184657
'\'(-inf-14.9]\'',-0.823272,-0.73828,-1.001764,-0.41716,-1.572447,-0.456966,-1.285878,-1.108895,-1.350427,-0.468711,-0.8699,-0.664949,-1.012314,-0.915636,-1.4801,-1.05217,-1.674019,-0.890589,-1.000462,-0.197206
'\'(-inf-14.9]\'',-0.809951,-0.724652,-1.104872,-0.350435,-1.567902,-0.456966,-1.285526,-1.108895,-1.350121,-0.46867,-0.86953,-0.664776,-1.012109,-0.915438,-1.4801,-1.051365,-1.682241,-0.88313,-1.000462,-0.121912
'\'(-inf-14.9]\'',-0.868227,-0.75115,-1.028662,-0.413195,-1.567113,-0.454769,-1.285408,-1.108326,-1.349755,-0.468609,-0.86921,-0.664602,-1.011472,-0.915262,-1.463186,-1.05044,-1.639474,-0.875671,-0.99359,-0.140736
'\'(-inf-14.9]\'',-0.845472,-0.725409,-1.138494,-0.396109,-1.561842,-0.469411,-1.285056,-1.108326,-1.349694,-0.468507,-0.86879,-0.664487,-1.010835,-0.915082,-1.457217,-1.048915,-1.626315,-0.871942,-0.99359,-0.178382
'\'(-inf-14.9]\'',-0.805511,-0.72238,-1.121683,-0.423585,-1.557739,-0.441592,-1.284703,-1.107758,-1.348992,-0.468445,-0.868302,-0.66414,-1.010155,-0.914926,-1.454234,-1.048826,-1.629608,-0.871942,-0.99359,-0.197206
'\'(-inf-14.9]\'',-0.830487,-0.711024,-1.118321,-0.458346,-1.551648,-0.452573,-1.284586,-1.107758,-1.348351,-0.468199,-0.867797,-0.663851,-1.009633,-0.914698,-1.447268,-1.048258,-1.604933,-0.875671,-1.000462,-0.134461
'\'(-inf-14.9]\'',-0.868227,-0.72238,-1.160909,-0.504994,-1.545114,-0.461358,-1.284233,-1.10719,-1.347985,-0.467994,-0.867242,-0.663851,-1.009153,-0.914495,-1.440307,-1.046639,-1.608222,-0.871942,-1.003898,-0.184657
'\'(-inf-14.9]\'',-0.877662,-0.758721,-1.135132,-0.468297,-1.536151,-0.437932,-1.28388,-1.10719,-1.347222,-0.46781,-0.866653,-0.663562,-1.008324,-0.914286,-1.436324,-1.04554,-1.627959,-0.868212,-1.003898,-0.14701
'\'(-inf-14.9]\'',-0.885432,-0.779163,-1.182203,-0.44783,-1.539623,-0.421094,-1.28341,-1.10719,-1.346916,-0.467708,-0.866283,-0.663389,-1.007686,-0.914102,-1.451247,-1.050093,-1.662504,-0.868212,-1.007334,-0.096815
'\'(-inf-14.9]\'',-0.874887,-0.775378,-1.191169,-0.389381,-1.526209,-0.403524,-1.282352,-1.106621,-1.346214,-0.467544,-0.865795,-0.663042,-1.006978,-0.913916,-1.418419,-1.049031,-1.598352,-0.864483,-1.007334,-0.222303
'\'(-inf-14.9]\'',-0.902082,-0.782192,-1.179962,-0.469756,-1.519802,-0.407917,-1.281882,-1.106621,-1.345482,-0.467482,-0.86534,-0.662522,-1.005141,-0.913656,-1.405484,-1.043716,-1.562162,-0.860753,-1.007334,-0.410537
'\'(-inf-14.9]\'',-0.946483,-0.812476,-1.140736,-0.541709,-1.51472,-0.407185,-1.28153,-1.106621,-1.344932,-0.4674,-0.864869,-0.662869,-1.004037,-0.913439,-1.393548,-1.042838,-1.535848,-0.864483,-1.01077,-0.435634
'\'(-inf-14.9]\'',-0.876552,-0.795062,-1.142977,-0.524357,-1.50784,-0.406453,-1.28153,-1.106053,-1.344719,-0.46736,-0.864381,-0.663216,-1.003013,-0.913244,-1.386583,-1.042076,-1.53091,-0.871942,-1.017642,-0.473281
'\'(-inf-14.9]\'',-0.944818,-0.835189,-1.211342,-0.538614,-1.501432,-0.429879,-1.281177,-1.105485,-1.344078,-0.467237,-0.86391,-0.6631,-1.001678,-0.912993,-1.37166,-1.04328,-1.514462,-0.868212,-1.017642,-0.510928
'\'(-inf-14.9]\'',-0.944818,-0.828375,-1.223671,-0.544318,-1.493353,-0.433539,-1.280354,-1.105485,-1.343284,-0.467134,-0.86354,-0.662869,-1.000461,-0.912731,-1.366686,-1.04227,-1.519395,-0.864483,-1.01077,-0.548574
'\'(-inf-14.9]\'',-0.978118,-0.841246,-1.195652,-0.57135,-1.48603,-0.435004,-1.279179,-1.104916,-1.342155,-0.467196,-0.863254,-0.662811,-0.999481,-0.912502,-1.357733,-1.040393,-1.507884,-0.860753,-1.007334,-0.548574
'\'(-inf-14.9]\'',-0.950368,-0.827618,-1.233757,-0.567637,-1.479749,-0.45843,-1.277651,-1.104916,-1.340689,-0.467093,-0.862749,-0.662465,-0.997965,-0.912245,-1.348777,-1.041129,-1.502947,-0.853294,-0.99359,-0.510928
'\'(-inf-14.9]\'',-1.007533,-0.861687,-1.289794,-0.616955,-1.47107,-0.445985,-1.278004,-1.10378,-1.340323,-0.466929,-0.862278,-0.662118,-0.997051,-0.911984,-1.337833,-1.039137,-1.502947,-0.845835,-0.983282,-0.548574
'\'(-inf-14.9]\'',-0.979783,-0.859416,-1.311088,-0.490788,-1.462769,-0.445985,-1.278356,-1.10378,-1.340201,-0.466786,-0.86179,-0.662234,-0.996322,-0.911702,-1.332859,-1.038742,-1.504591,-0.842106,-0.983282,-0.536025
'\'(-inf-14.9]\'',-0.980338,-0.83746,-1.400747,-0.579051,-1.4545,-0.486249,-1.277534,-1.10378,-1.339957,-0.466561,-0.861167,-0.662002,-0.995198,-0.911402,-1.329876,-1.038411,-1.476628,-0.830917,-0.972974,-0.441909
'\'(-inf-14.9]\'',-1.013638,-0.852602,-1.333503,-0.623337,-1.447272,-0.448913,-1.277181,-1.103211,-1.339804,-0.466315,-0.860646,-0.661714,-0.99438,-0.911129,-1.317936,-1.035189,-1.466757,-0.815999,-0.966102,-0.448183
'\'(-inf-14.9]\'',-1.028623,-0.87153,-1.361521,-0.617329,-1.438529,-0.431343,-1.276006,-1.102643,-1.33895,-0.466172,-0.860124,-0.661425,-0.993509,-0.910864,-1.312962,-1.033643,-1.456891,-0.801081,-0.95923,-0.397988
'\'(-inf-14.9]\'',-1.020853,-0.885158,-1.404109,-0.670536,-1.42824,-0.438664,-1.274831,-1.102643,-1.337118,-0.465946,-0.859535,-0.660616,-0.991773,-0.910645,-1.29804,-1.03318,-1.445376,-0.771245,-0.935179,-0.42936
'\'(-inf-14.9]\'',-1.040834,-0.887429,-1.493768,-0.627929,-1.421706,-0.432075,-1.274478,-1.102075,-1.336508,-0.46568,-0.859064,-0.660905,-0.990753,-0.91033,-1.2861,-1.032318,-1.435505,-0.748868,-0.921435,-0.498379
'\'(-inf-14.9]\'',-1.056929,-0.902571,-1.515062,-0.662929,-1.413279,-0.441592,-1.272127,-1.102075,-1.334402,-0.465578,-0.858626,-0.661309,-0.989887,-0.909998,-1.278143,-1.031929,-1.430572,-0.73395,-0.900819,-0.473281
'\'(-inf-14.9]\'',-1.063034,-0.904085,-1.452301,-0.797124,-1.400781,-0.427683,-1.270952,-1.100938,-1.33315,-0.465393,-0.858189,-0.661251,-0.988851,-0.909745,-1.261229,-1.029632,-1.415768,-0.681737,-0.8321,-0.479555
'\'(-inf-14.9]\'',-1.067474,-0.916956,-1.63274,-0.821981,-1.393048,-0.69489,-1.269777,-1.10037,-1.33138,-0.465127,-0.857836,-0.660905,-0.987797,-0.9095,-1.259238,-1.031451,-1.409191,-0.66682,-0.801176,-0.567397
'\'(-inf-14.9]\'',-1.090229,-0.891215,-1.444456,-0.761259,-1.384368,-0.448913,-1.268954,-1.099802,-1.330739,-0.465229,-0.857701,-0.660847,-0.986617,-0.909301,-1.247303,-1.033716,-1.409187,-0.659361,-0.777124,-0.692886
'\'(-inf-14.9]\'',-1.122974,-0.932855,-1.491527,-0.753273,-1.371775,-0.441592,-1.268601,-1.099233,-1.329457,-0.465168,-0.857516,-0.660558,-0.984064,-0.908977,-1.241333,-1.030725,-1.400965,-0.625795,-0.742765,-0.843473
'\'(-inf-14.9]\'',-1.149615,-0.948754,-1.457905,-0.646768,-1.365778,-0.429147,-1.267779,-1.098097,-1.328449,-0.465434,-0.857566,-0.65998,-0.982344,-0.908791,-1.234368,-1.030168,-1.404253,-0.59223,-0.708405,-0.793277
'\'(-inf-14.9]\'',-1.129079,-0.951783,-1.437731,-0.725455,-1.359277,-0.40206,-1.265428,-1.097528,-1.326465,-0.465332,-0.85728,-0.660211,-0.982083,-0.908669,-1.233376,-1.028659,-1.410835,-0.536287,-0.656866,-0.812101
'\'(-inf-14.9]\'',-1.115759,-0.954054,-1.475837,-0.749279,-1.354984,-0.406453,-1.264253,-1.095823,-1.324817,-0.465086,-0.856809,-0.659807,-0.981471,-0.908488,-1.221436,-1.028386,-1.404253,-0.469156,-0.567531,-0.755631
'\'(-inf-14.9]\'',-1.112429,-0.939669,-1.490406,-0.733124,-1.348325,-0.409381,-1.263078,-1.094687,-1.323443,-0.46525,-0.856759,-0.659691,-0.980825,-0.908292,-1.212483,-1.028964,-1.363131,-0.498992,-0.564095,-0.943864
'\'(-inf-14.9]\'',-1.129079,-0.955568,-1.494889,-0.692887,-1.343117,-0.427683,-1.262725,-1.09355,-1.32268,-0.465209,-0.856489,-0.65946,-0.980378,-0.908151,-1.221436,-1.028917,-1.373001,-0.521369,-0.553787,-0.994059
'\'(-inf-14.9]\'',-1.115759,-0.947997,-1.529632,-0.634639,-1.337436,-0.421094,-1.262255,-1.092982,-1.321581,-0.465086,-0.856001,-0.658767,-0.979631,-0.907972,-1.218453,-1.029873,-1.377935,-0.506451,-0.536607,-0.968962
'\'(-inf-14.9]\'',-1.115204,-0.953297,-1.407472,-0.668904,-1.330871,-0.425487,-1.26249,-1.091845,-1.321551,-0.465106,-0.855766,-0.658998,-0.979263,-0.90782,-1.212343,-1.036329,-1.359872,-0.577312,-0.608762,-0.843473
'\'(-inf-14.9]\'',-1.131854,-0.954811,-1.398506,-0.575385,-1.330176,-0.440128,-1.261315,-1.091277,-1.32094,-0.464881,-0.855177,-0.659287,-0.978912,-0.907704,-1.227102,-1.037612,-1.386904,-0.640713,-0.660302,-0.849747
'\'(-inf-14.9]\'',-1.14462,-0.97071,-1.39066,-0.426924,-1.326989,-0.449645,-1.261315,-1.090709,-1.320666,-0.464512,-0.854403,-0.659345,-0.978213,-0.90757,-1.234353,-1.036345,-1.380539,-0.603418,-0.649994,-0.611319
'\'(-inf-14.9]\'',-1.14906,-0.975253,-1.360401,-0.416403,-1.329009,-0.468679,-1.260139,-1.089572,-1.319781,-0.464635,-0.853999,-0.659287,-0.976899,-0.907426,-1.222287,-1.036024,-1.346585,-0.610877,-0.656866,-0.278773
'\'(-inf-14.9]\'',-1.155165,-0.991152,-1.350314,-0.543823,-1.324148,-0.481124,-1.260139,-1.089004,-1.318773,-0.464328,-0.853141,-0.659229,-0.976384,-0.90726,-1.233553,-1.036603,-1.385664,-0.562394,-0.612198,-0.046619
'\'(-inf-14.9]\'',-1.15239,-0.993424,-1.37497,-0.561357,-1.320045,-0.491373,-1.257789,-1.087867,-1.317094,-0.464062,-0.852333,-0.658883,-0.975035,-0.907049,-1.233716,-1.032807,-1.379719,-0.487804,-0.546915,0.034949
'\'(-inf-14.9]\'',-1.15794,-0.992666,-1.397385,-0.580996,-1.315689,-0.480392,-1.256613,-1.087299,-1.315293,-0.463837,-0.85161,-0.65842,-0.973746,-0.906848,-1.236629,-1.033711,-1.382613,-0.435591,-0.509119,0.242005
'\'(-inf-14.9]\'',-1.141844,-0.955568,-1.324537,-0.65137,-1.307641,-0.580686,-1.255438,-1.08673,-1.313645,-0.463509,-0.850852,-0.658478,-0.974021,-0.906645,-1.212161,-1.03368,-1.363314,-0.420673,-0.485068,0.24828
'\'(-inf-14.9]\'',-1.137959,-0.984338,-1.361521,-0.634302,-1.306978,-0.60338,-1.254263,-1.085594,-1.312027,-0.463304,-0.850196,-0.658189,-0.973744,-0.906397,-1.214275,-1.03,-1.359362,-0.409484,-0.461016,0.204358
'\'(-inf-14.9]\'',-1.124639,-0.972225,-1.286432,-0.632666,-1.305053,-0.616558,-1.253088,-1.084457,-1.310532,-0.46312,-0.849607,-0.657785,-0.973289,-0.906138,-1.20369,-1.032029,-1.332423,-0.346083,-0.419784,0.386317
'\'(-inf-14.9]\'',-1.114649,-0.969196,-1.350314,-0.681763,-1.289966,-0.616558,-1.250737,-1.083889,-1.308761,-0.462956,-0.849102,-0.657438,-0.972681,-0.90586,-1.184955,-1.028943,-1.289108,-0.252846,-0.351065,0.398866
'\'(-inf-14.9]\'',-1.117424,-0.959354,-1.333503,-0.658617,-1.283748,-0.62095,-1.249562,-1.082752,-1.307907,-0.462771,-0.848497,-0.656687,-0.970772,-0.905535,-1.170643,-1.025084,-1.255128,-0.208092,-0.27891,0.129065
'\'(-inf-14.9]\'',-1.107434,-0.963139,-1.351435,-0.637342,-1.286778,-0.639984,-1.248386,-1.082184,-1.305404,-0.462567,-0.848059,-0.656745,-0.970264,-0.905246,-1.172091,-1.027576,-1.283533,-0.215551,-0.309834,-0.03407
'\'(-inf-14.9]\'',-1.126859,-0.971468,-1.417558,-0.660721,-1.273806,-0.628271,-1.247211,-1.081616,-1.303206,-0.462485,-0.847554,-0.657034,-0.970205,-0.904925,-1.167283,-1.025973,-1.272383,-0.241657,-0.323577,-0.084266
'\'(-inf-14.9]\'',-1.138514,-0.971468,-1.485923,-0.733433,-1.271281,-0.637788,-1.246036,-1.080479,-1.301436,-0.462321,-0.847083,-0.656861,-0.969567,-0.904602,-1.163079,-1.02266,-1.259925,-0.237928,-0.306398,-0.184657
'\'(-inf-14.9]\'',-1.168485,-0.994181,-1.40523,-0.715664,-1.263044,-0.53603,-1.24486,-1.079911,-1.299726,-0.462096,-0.846663,-0.656572,-0.967951,-0.90429,-1.161124,-1.022981,-1.263481,-0.200633,-0.265166,-0.692886
'\'(-inf-14.9]\'',-1.167375,-1.004023,-1.529632,-0.715664,-1.260014,-0.535298,-1.243685,-1.079342,-1.297712,-0.461809,-0.846124,-0.656514,-0.967269,-0.903986,-1.14595,-1.022082,-1.252204,-0.178256,-0.24455,-0.76818
'\'(-inf-14.9]\'',-1.161825,-0.984338,-1.45006,-0.740914,-1.252028,-0.531637,-1.241335,-1.078774,-1.295941,-0.461522,-0.845501,-0.656052,-0.966085,-0.903606,-1.140928,-1.019769,-1.239181,-0.174526,-0.230806,-0.837198
'\'(-inf-14.9]\'',-1.15017,-0.98661,-1.433248,-0.728523,-1.245053,-0.511871,-1.238984,-1.077637,-1.294262,-0.461297,-0.844997,-0.65559,-0.964717,-0.903411,-1.14303,-1.017966,-1.244288,-0.189444,-0.26173,-0.943864
'\'(-inf-14.9]\'',-1.168485,-0.991152,-1.507217,-0.713794,-1.238615,-0.50455,-1.237809,-1.077069,-1.292004,-0.46103,-0.844357,-0.655474,-0.964467,-0.903275,-1.139207,-1.016057,-1.218896,-0.271493,-0.316705,-1.000334
'\'(-inf-14.9]\'',-1.178475,-1.007051,-1.489285,-0.753072,-1.233754,-0.491373,-1.236633,-1.075932,-1.290081,-0.460846,-0.843651,-0.655416,-0.963716,-0.902998,-1.134,-1.019191,-1.210342,-0.290141,-0.327013,-0.818375
'\'(-inf-14.9]\'',-1.17237,-1.005537,-1.469112,-0.776451,-1.226274,-0.827395,-1.234283,-1.074796,-1.287639,-0.46058,-0.842977,-0.654954,-0.96252,-0.902614,-1.131261,-1.015148,-1.19669,-0.245387,-0.309834,-0.824649
'\'(-inf-14.9]\'',-1.188465,-1.007809,-1.503855,-0.788609,-1.217973,-0.49723,-1.233107,-1.073659,-1.285746,-0.46017,-0.84217,-0.654434,-0.96047,-0.90224,-1.113378,-1.011483,-1.168374,-0.208092,-0.251422,-0.692886
'\'(-inf-14.9]\'',-1.191795,-0.985853,-1.467991,-0.713326,-1.209641,-0.507479,-1.230757,-1.072523,-1.284586,-0.459883,-0.841429,-0.653625,-0.958323,-0.901888,-1.108955,-1.013665,-1.180616,-0.111125,-0.175831,-0.611319
'\'(-inf-14.9]\'',-1.198455,-1.008566,-1.484802,-0.750734,-1.203612,-0.505283,-1.229582,-1.071954,-1.282389,-0.459617,-0.841009,-0.653741,-0.957158,-0.901521,-1.100458,-1.012051,-1.168952,-0.058912,-0.144907,-0.780728
'\'(-inf-14.9]\'',-1.18791,-1.019922,-1.397385,-0.729692,-1.195406,-0.50455,-1.228406,-1.070249,-1.280954,-0.459494,-0.840571,-0.654261,-0.955738,-0.901113,-1.091412,-1.010952,-1.15091,-0.032806,-0.151779,-0.881119
'\'(-inf-14.9]\'',-1.190685,-1.016894,-1.501614,-0.762423,-1.188904,-0.531637,-1.22488,-1.069113,-1.278298,-0.459351,-0.840151,-0.654376,-0.954573,-0.900739,-1.080261,-1.012177,-1.135384,0.038055,-0.079624,-0.92504
'\'(-inf-14.9]\'',-1.17237,-1.006294,-1.508338,-0.785803,-1.183633,-0.538226,-1.22253,-1.067976,-1.275795,-0.459208,-0.839932,-0.65403,-0.952677,-0.900402,-1.085535,-1.01131,-1.168387,0.052973,-0.069316,-1.395623
'\'(-inf-14.9]\'',-1.171815,-1.011594,-1.628257,-0.798896,-1.175553,-0.533833,-1.221354,-1.066839,-1.273506,-0.459187,-0.839797,-0.653452,-0.951226,-0.900102,-1.090931,-1.009854,-1.184822,0.015678,-0.076188,-2.092086
'\'(-inf-14.9]\'',-1.18236,-1.013108,-1.469112,-0.748396,-1.165832,-0.528709,-1.219004,-1.066271,-1.270728,-0.459085,-0.839461,-0.653394,-0.95049,-0.899925,-1.077034,-1.010821,-1.159604,0.086538,-0.014341,-2.079537
'\'(-inf-14.9]\'',-1.177365,-0.985853,-1.45006,-0.670073,-1.162897,-0.486981,-1.216653,-1.065135,-1.268195,-0.459003,-0.839292,-0.653279,-0.949852,-0.899692,-1.069447,-1.010732,-1.12098,0.123833,0.033763,-1.803462
'\'(-inf-14.9]\'',-1.179585,-1.007051,-1.395143,-0.71847,-1.154091,-0.445985,-1.215478,-1.064566,-1.266608,-0.459003,-0.839191,-0.653221,-0.949542,-0.899494,-1.066127,-1.008944,-1.125004,0.082809,0.040635,-2.186203
'\'(-inf-14.9]\'',-1.169595,-0.994938,-1.285311,-0.735537,-1.157058,-0.418166,-1.213127,-1.062861,-1.264196,-0.458921,-0.838855,-0.653221,-0.94891,-0.899346,-1.066453,-1.00682,-1.142021,0.14621,0.105918,-1.866206
'\'(-inf-14.9]\'',-1.17903,-1.004023,-1.408592,-0.714495,-1.150525,-0.408649,-1.210777,-1.063998,-1.262212,-0.458757,-0.838636,-0.652874,-0.948268,-0.899197,-1.066031,-1.005106,-1.141074,0.217071,0.164329,-1.809736
'\'(-inf-14.9]\'',-1.16904,-0.996452,-1.369366,-0.687608,-1.151629,-0.422558,-1.208426,-1.062861,-1.259679,-0.458614,-0.8383,-0.652181,-0.947219,-0.89907,-1.079676,-1.005238,-1.16045,0.22453,0.174637,-1.690522
'\'(-inf-14.9]\'',-1.157385,-1.007051,-1.37497,-0.618638,-1.146737,-0.418166,-1.206076,-1.062293,-1.256993,-0.458552,-0.837879,-0.651488,-0.945472,-0.898978,-1.083525,-1.003787,-1.15748,0.362521,0.312076,-1.445819
'\'(-inf-14.9]\'',-1.147395,-0.998723,-1.318933,-0.491218,-1.148789,-0.452573,-1.203725,-1.061156,-1.254886,-0.458081,-0.837593,-0.651719,-0.945843,-0.898682,-1.11001,-1.003298,-1.194583,0.433381,0.384231,-1.364251
'\'(-inf-14.9]\'',-1.125749,-0.985095,-1.190048,-0.437445,-1.144717,-0.462822,-1.201374,-1.06002,-1.252536,-0.458327,-0.838148,-0.652412,-0.946588,-0.898512,-1.110935,-1.002551,-1.173108,0.44084,0.356743,-1.709345
'\'(-inf-14.9]\'',-1.090229,-0.969953,-1.094786,-0.391854,-1.140109,-0.469411,-1.199024,-1.058883,-1.251071,-0.458183,-0.83798,-0.652354,-0.946938,-0.89841,-1.112756,-1.004055,-1.175742,0.407275,0.305204,-1.050529
'\'(-inf-14.9]\'',-1.052489,-0.954054,-1.125046,-0.125325,-1.14336,-0.489909,-1.196673,-1.057178,-1.248049,-0.457979,-0.837795,-0.651777,-0.946611,-0.898341,-1.116357,-1.002168,-1.166853,0.403545,0.329255,-1.063078
'\'(-inf-14.9]\'',-1.058594,-0.932098,-0.973746,-0.194763,-1.15043,-0.497962,-1.195498,-1.056042,-1.246157,-0.457876,-0.837273,-0.651603,-0.946197,-0.898314,-1.117986,-0.999865,-1.154896,0.507971,0.425462,-0.636416
'\'(-inf-14.9]\'',-1.021963,-0.937398,-0.91883,-0.259758,-1.153428,-0.475268,-1.193147,-1.054905,-1.2446,-0.457794,-0.836651,-0.65143,-0.945178,-0.898382,-1.122501,-0.998824,-1.149347,0.645962,0.518233,-0.467006
'\'(-inf-14.9]\'',-1.019188,-0.929827,-0.875121,-0.306518,-1.152671,-0.476732,-1.191972,-1.053768,-1.242402,-0.457712,-0.835994,-0.650794,-0.944137,-0.898267,-1.119085,-0.997446,-1.144023,0.631044,0.569773,-0.460732
'\'(-inf-14.9]\'',-0.995323,-0.916956,-0.853827,-0.311662,-1.156332,-0.438664,-1.190797,-1.052632,-1.240815,-0.457323,-0.835018,-0.650679,-0.943069,-0.898147,-1.121572,-0.997499,-1.181895,0.51543,0.583517,-0.040345
'\'(-inf-14.9]\'',-0.949258,-0.894243,-0.741753,-0.156887,-1.156111,-0.431343,-1.188446,-1.051495,-1.238098,-0.456934,-0.833958,-0.65039,-0.941847,-0.897994,-1.131169,-0.996984,-1.190219,0.500512,0.566337,0.072595
'\'(-inf-14.9]\'',-0.958693,-0.910899,-0.717097,-0.086281,-1.169462,-0.427683,-1.186095,-1.050927,-1.235076,-0.456709,-0.833083,-0.65039,-0.941544,-0.89781,-1.158826,-0.995612,-1.217035,0.478135,0.545721,0.091419
'\'(-inf-14.9]\'',-0.903192,-0.855631,-0.444758,-0.125325,-1.172997,-0.42329,-1.183745,-1.04979,-1.232665,-0.456545,-0.832292,-0.649928,-0.941049,-0.897655,-1.167031,-0.999323,-1.231405,0.485594,0.562901,0.160437
'\'(-inf-14.9]\'',-0.774986,-0.817018,-0.587091,-0.215337,-1.160909,-0.429147,-1.181394,-1.048085,-1.229948,-0.456401,-0.831384,-0.649061,-0.939585,-0.897322,-1.136106,-0.994518,-1.139272,0.332685,0.473566,0.317298
'\'(-inf-14.9]\'',-0.768881,-0.781434,-0.542262,-0.249004,-1.158605,-0.473071,-1.180219,-1.047517,-1.228636,-0.456176,-0.830307,-0.648946,-0.93935,-0.897101,-1.125506,-0.990475,-1.105947,0.228259,0.342999,0.700039
'\'(-inf-14.9]\'',-0.793856,-0.767807,-0.534417,-0.318208,-1.160435,-0.507479,-1.180219,-1.04638,-1.226835,-0.455787,-0.828944,-0.649292,-0.938921,-0.896857,-1.128152,-0.988709,-1.107217,0.123833,0.222741,0.881998
'\'(-inf-14.9]\'',-0.777206,-0.764021,-0.529934,-0.272617,-1.158762,-0.519192,-1.179044,-1.045244,-1.22479,-0.4555,-0.827446,-0.649177,-0.938806,-0.896487,-1.129655,-0.988467,-1.100759,0.172317,0.246792,0.63102
'\'(-inf-14.9]\'',-0.748901,-0.763264,-0.59942,-0.301842,-1.153207,-0.516996,-1.177868,-1.044107,-1.222348,-0.455254,-0.826016,-0.648715,-0.938606,-0.896072,-1.121883,-0.985218,-1.082182,0.187235,0.243356,0.436513
'\'(-inf-14.9]\'',-0.735581,-0.72238,-0.609506,-0.279865,-1.146548,-0.511871,-1.175518,-1.04297,-1.219753,-0.454845,-0.824619,-0.648252,-0.937479,-0.89565,-1.114817,-0.986264,-1.080197,0.29166,0.301768,0.486708
'\'(-inf-14.9]\'',-0.738911,-0.697396,-0.564677,-0.259758,-1.146327,-0.51846,-1.173167,-1.041834,-1.216976,-0.454538,-0.823559,-0.647964,-0.936161,-0.895229,-1.108951,-0.982942,-1.063205,0.332685,0.346435,0.392592
'\'(-inf-14.9]\'',-0.69229,-0.677711,-0.628559,-0.275189,-1.144402,-0.655358,-1.171992,-1.040697,-1.215083,-0.454251,-0.822449,-0.647212,-0.935851,-0.894523,-1.11303,-0.98239,-1.027509,0.332685,0.349871,0.273377
'\'(-inf-14.9]\'',-0.68674,-0.690582,-0.607265,-0.125325,-1.142571,-0.527977,-1.170816,-1.040129,-1.213252,-0.454107,-0.821456,-0.64727,-0.93424,-0.894094,-1.121157,-0.98138,-1.05432,0.314037,0.349871,0.0224
'\'(-inf-14.9]\'',-0.69895,-0.68074,-0.607265,-0.148705,-1.134965,-0.480392,-1.169641,-1.038992,-1.212305,-0.453923,-0.820278,-0.647097,-0.93301,-0.893558,-1.098526,-0.978242,-1.032977,0.258095,0.29146,-0.247401
'\'(-inf-14.9]\'',-0.682855,-0.659541,-0.631921,-0.254615,-1.134081,-0.948187,-1.168466,-1.040129,-1.211329,-0.45378,-0.819285,-0.646924,-0.932276,-0.892998,-1.087933,-0.976007,-1.001368,0.239447,0.253664,-0.159559
'\'(-inf-14.9]\'',-0.67786,-0.667112,-0.5389,-0.30418,-1.127611,-0.91744,-1.167291,-1.039561,-1.210016,-0.453657,-0.818242,-0.646461,-0.931606,-0.892488,-1.081882,-0.973836,-0.982524,0.190964,0.219305,-0.052894
'\'(-inf-14.9]\'',-0.67453,-0.665598,-0.663302,-0.369643,-1.119341,-0.481856,-1.166115,-1.038992,-1.207513,-0.453554,-0.817283,-0.64571,-0.931623,-0.892428,-1.06535,-0.973957,-0.966449,0.187235,0.219305,0.505532
'\'(-inf-14.9]\'',-0.68896,-0.658026,-0.695803,-0.37806,-1.108863,-0.492837,-1.16494,-1.038424,-1.204888,-0.453186,-0.816038,-0.645479,-0.931168,-0.891704,-1.03066,-0.975397,-0.930353,0.164858,0.167765,0.919644
'\'(-inf-14.9]\'',-0.669535,-0.614114,-0.717097,-0.414065,-1.102329,-0.52212,-1.162589,-1.037856,-1.202355,-0.452735,-0.814692,-0.646115,-0.93026,-0.890666,-1.01563,-0.973831,-0.915541,0.194694,0.167765,1.132975
'\'(-inf-14.9]\'',-0.702835,-0.628499,-0.775375,-0.417572,-1.092987,-0.500158,-1.162589,-1.037287,-1.201439,-0.452326,-0.813379,-0.645768,-0.92928,-0.889911,-1.00519,-0.968936,-0.916263,0.183505,0.171201,0.787881
'\'(-inf-14.9]\'',-0.718931,-0.597458,-0.683475,-0.416403,-1.086106,-0.545547,-1.161414,-1.036719,-1.200462,-0.452059,-0.812555,-0.645075,-0.927374,-0.889114,-0.990223,-0.968458,-0.887748,0.205882,0.171201,0.649844
'\'(-inf-14.9]\'',-0.738356,-0.667869,-0.64537,-0.394192,-1.076417,-0.521388,-1.160239,-1.036151,-1.199028,-0.451998,-0.81173,-0.644728,-0.925569,-0.888344,-0.990079,-0.965887,-0.8984,0.205882,0.167765,0.549453
'\'(-inf-14.9]\'',-0.753341,-0.690582,-0.695803,-0.368474,-1.067295,-0.511139,-1.159063,-1.035582,-1.198051,-0.451854,-0.810653,-0.644497,-0.924239,-0.887746,-0.986063,-0.964599,-0.897389,0.179776,0.157457,0.417689
'\'(-inf-14.9]\'',-0.746126,-0.714052,-0.666664,-0.254615,-1.068842,-0.535298,-1.157888,-1.035582,-1.195731,-0.451404,-0.809004,-0.643804,-0.923108,-0.886871,-0.987503,-0.963537,-0.878591,0.172317,0.167765,0.361219
'\'(-inf-14.9]\'',-0.745016,-0.700424,-0.637525,-0.460824,-1.055207,-0.468679,-1.156713,-1.035014,-1.193838,-0.450974,-0.807456,-0.643804,-0.921468,-0.885947,-0.966551,-0.961634,-0.851818,0.164858,0.154021,0.267103
'\'(-inf-14.9]\'',-0.758891,-0.692096,-0.806756,-0.448199,-1.051325,-0.426951,-1.154362,-1.035014,-1.190908,-0.450503,-0.805841,-0.643746,-0.920294,-0.885141,-0.954567,-0.957828,-0.837995,0.176046,0.119662,0.436513
'\'(-inf-14.9]\'',-0.763331,-0.711781,-0.714856,-0.472514,-1.038384,-0.428415,-1.153187,-1.032741,-1.190176,-0.450134,-0.804394,-0.643053,-0.917655,-0.884332,-0.934526,-0.954931,-0.802201,0.172317,0.109354,0.285926
'\'(-inf-14.9]\'',-0.809396,-0.75115,-0.811239,-0.473683,-1.028947,-0.445985,-1.150836,-1.032741,-1.188222,-0.449847,-0.803216,-0.643573,-0.914565,-0.883451,-0.915829,-0.953527,-0.783896,0.138751,0.085302,0.147889
'\'(-inf-14.9]\'',-0.828267,-0.762507,-0.728304,-0.512728,-1.019637,-0.476732,-1.149661,-1.032172,-1.186116,-0.449274,-0.801802,-0.643053,-0.912686,-0.882864,-0.897834,-0.948785,-0.762192,0.123833,0.064686,0.028674
'\'(-inf-14.9]\'',-0.861012,-0.796577,-0.85831,-0.577723,-1.008621,-0.502354,-1.14731,-1.031604,-1.184132,-0.448803,-0.800456,-0.642879,-0.909836,-0.881827,-0.886117,-0.945105,-0.766955,0.14994,0.054378,-0.291322
'\'(-inf-14.9]\'',-0.890427,-0.825346,-0.94909,-0.608117,-0.996091,-0.481856,-1.143785,-1.031036,-1.180652,-0.448659,-0.799817,-0.643688,-0.903177,-0.880833,-0.862727,-0.94193,-0.734577,0.176046,0.07843,-0.579946
'\'(-inf-14.9]\'',-0.893202,-0.813233,-0.862793,-0.583802,-0.987569,-0.484785,-1.139083,-1.030468,-1.175921,-0.448762,-0.799615,-0.643226,-0.898033,-0.879697,-0.86202,-0.940247,-0.727052,0.202153,0.099046,-0.856022
'\'(-inf-14.9]\'',-0.937603,-0.849574,-0.712614,-0.528626,-0.982172,-0.48332,-1.135557,-1.029899,-1.170945,-0.448557,-0.798874,-0.64236,-0.894847,-0.878654,-0.864292,-0.941882,-0.754526,0.190964,0.119662,-0.899943
'\'(-inf-14.9]\'',-0.933718,-0.84276,-0.885208,-0.522781,-0.976081,-0.472339,-1.133207,-1.028763,-1.167618,-0.448106,-0.79768,-0.642071,-0.89184,-0.877797,-0.853456,-0.941882,-0.738376,0.202153,0.109354,-1.238762
'\'(-inf-14.9]\'',-0.954253,-0.86093,-0.965901,-0.529561,-0.968537,-0.425487,-1.129681,-1.028194,-1.163742,-0.447737,-0.796586,-0.641724,-0.888299,-0.876837,-0.851316,-0.939848,-0.755006,0.231988,0.133406,-1.615229
'\'(-inf-14.9]\'',-0.967018,-0.893486,-0.891932,-0.511091,-0.967717,-0.386687,-1.129681,-1.028194,-1.161269,-0.447574,-0.796047,-0.640626,-0.885207,-0.875858,-0.845158,-0.939779,-0.761945,0.261824,0.171201,-2.669334
'\'(-inf-14.9]\'',-0.949258,-0.854116,-0.952452,-0.438614,-0.959668,-0.344958,-1.120279,-1.027626,-1.153364,-0.447533,-0.79566,-0.640511,-0.88182,-0.874916,-0.847486,-0.939112,-0.78608,0.347603,0.270844,-2.562669
'\'(-inf-14.9]\'',-0.950923,-0.883643,-0.856069,-0.492153,-0.95626,-0.322996,-1.117928,-1.026489,-1.150616,-0.447492,-0.795576,-0.64028,-0.881278,-0.87402,-0.834236,-0.936099,-0.745777,0.328955,0.305204,-2.932861
'\'(-inf-14.9]\'',-0.946483,-0.852602,-0.884087,-0.516936,-0.945813,-0.290785,-1.113227,-1.022511,-1.146679,-0.447266,-0.795021,-0.639529,-0.880458,-0.873179,-0.820687,-0.934837,-0.734696,0.317767,0.229612,-2.637962
'\'(-inf-14.9]\'',-0.924838,-0.842003,-0.956935,-0.459655,-0.935934,-0.245396,-1.109701,-1.021943,-1.14094,-0.446857,-0.793961,-0.639066,-0.879511,-0.872294,-0.812967,-0.933018,-0.726159,0.343873,0.233048,-2.688158
'\'(-inf-14.9]\'',-0.960913,-0.858659,-0.896415,-0.318208,-0.93243,-0.210989,-1.105,-1.020806,-1.135141,-0.446468,-0.79285,-0.638027,-0.877933,-0.871461,-0.817763,-0.939001,-0.773295,0.347603,0.253664,-2.631688
'\'(-inf-14.9]\'',-0.943153,-0.855631,-0.791066,-0.218844,-0.930253,-0.178046,-1.099123,-1.01967,-1.128334,-0.446283,-0.792144,-0.637853,-0.875693,-0.870936,-0.829033,-0.936189,-0.807381,0.403545,0.253664,-2.286594
'\'(-inf-14.9]\'',-0.926503,-0.854116,-0.76641,-0.156887,-0.925392,-0.150959,-1.093247,-1.018533,-1.11997,-0.445976,-0.791386,-0.638604,-0.873529,-0.870102,-0.834147,-0.934837,-0.815807,0.411004,0.270844,-1.878755
'\'(-inf-14.9]\'',-0.915402,-0.857145,-0.792186,-0.189152,-0.924066,-0.14437,-1.08737,-1.01626,-1.111546,-0.445689,-0.790394,-0.638315,-0.868527,-0.869204,-0.834247,-0.931546,-0.810703,0.470676,0.301768,-1.960323
'\'(-inf-14.9]\'',-0.893202,-0.838974,-0.732787,-0.276124,-0.921352,-0.073359,-1.083844,-1.014555,-1.106357,-0.445587,-0.789922,-0.637102,-0.860892,-0.868196,-0.839162,-0.92845,-0.818462,0.560184,0.387667,-2.499925
'\'(-inf-14.9]\'',-0.898197,-0.83746,-0.785462,-0.255082,-0.916081,-0.022114,-1.077968,-1.012282,-1.099061,-0.445505,-0.789636,-0.636467,-0.857627,-0.867412,-0.825791,-0.925763,-0.794378,0.604938,0.449514,-2.957959
'\'(-inf-14.9]\'',-0.872667,-0.829132,-0.664422,-0.217207,-0.914345,0.016686,-1.073267,-1.008303,-1.092712,-0.445321,-0.789098,-0.636004,-0.854563,-0.866766,-0.828999,-0.925185,-0.78577,0.642233,0.525105,-3.372072
'\'(-inf-14.9]\'',-0.873777,-0.81399,-0.56916,-0.198971,-0.913335,0.063538,-1.069741,-1.005462,-1.087157,-0.445157,-0.788492,-0.635138,-0.849766,-0.866034,-0.825594,-0.921353,-0.786314,0.73547,0.59726,-3.823831
'\'(-inf-14.9]\'',-0.853797,-0.813233,-0.702527,-0.049808,-0.913872,0.110391,-1.062689,-1.002052,-1.079221,-0.444993,-0.788038,-0.635196,-0.846805,-0.865588,-0.843481,-0.914471,-0.790333,0.839896,0.696903,-3.108545
'\'(-inf-14.9]\'',-0.819942,-0.810961,-0.481742,0.040672,-0.914156,0.168225,-1.054462,-0.99921,-1.071254,-0.444809,-0.787398,-0.635022,-0.844811,-0.865242,-0.843208,-0.920422,-0.812981,0.929404,0.837778,-2.688158
'\'(-inf-14.9]\'',-0.791636,-0.805662,-0.380876,0.209006,-0.913525,0.245825,-1.049761,-0.996937,-1.065699,-0.444542,-0.78649,-0.634791,-0.843282,-0.864876,-0.848489,-0.922698,-0.812926,0.940592,0.940857,-1.972872
'\'(-inf-14.9]\'',-0.760556,-0.781434,-0.215007,0.493538,-0.925045,0.274376,-1.043884,-0.995232,-1.059838,-0.444255,-0.785598,-0.634098,-0.84183,-0.864541,-0.903271,-0.923955,-0.884795,0.798872,0.982088,-1.728169
'\'(-inf-14.9]\'',-0.650665,-0.699667,0.046125,0.804021,-0.944392,0.022542,-1.039183,-0.992959,-1.053611,-0.444153,-0.785009,-0.633116,-0.840752,-0.864219,-0.961174,-0.927609,-0.967537,0.798872,0.992396,-1.307781
'\'(-inf-14.9]\'',-0.523569,-0.633799,0.600891,0.855457,-0.955723,0.332941,-1.034482,-0.990117,-1.048697,-0.444215,-0.784302,-0.633636,-0.840368,-0.864084,-0.982691,-0.918955,-1.02255,0.776495,1.054243,-0.385439
'\'(-inf-14.9]\'',-0.364837,-0.564146,0.567268,0.899878,-0.967559,0.354904,-1.030956,-0.987276,-1.044362,-0.443989,-0.78299,-0.634907,-0.84186,-0.863741,-1.017618,-0.915401,-1.054601,0.698175,0.999268,0.103967
'\'(-inf-14.9]\'',-0.235521,-0.524776,0.582959,0.909698,-0.976081,0.373938,-1.028605,-0.984434,-1.041646,-0.443702,-0.781156,-0.634791,-0.844656,-0.863431,-1.03408,-0.921011,-1.04852,0.716823,0.940857,0.756509
'\'(-inf-14.9]\'',-0.031279,-0.377141,0.682704,0.809866,-0.982014,0.344655,-1.026255,-0.982161,-1.038929,-0.443743,-0.779456,-0.634156,-0.845532,-0.863171,-1.031237,-0.917657,-0.999465,0.821249,0.975216,1.101603
'\'(-inf-14.9]\'',0.080277,-0.282503,0.652444,0.686187,-0.976838,0.422254,-1.025079,-0.980456,-1.035694,-0.443129,-0.777302,-0.63404,-0.847186,-0.863123,-1.035568,-0.906296,-0.988591,0.802601,1.013012,1.164348
'\'(14.9-27.8]\'',0.191278,-0.118968,0.466402,0.670756,-0.980089,0.421522,-1.020378,-0.978183,-1.030627,-0.442474,-0.774762,-0.633231,-0.848961,-0.863049,-1.026223,-0.90658,-0.956201,0.754118,0.98896,0.831802
'\'(14.9-27.8]\'',0.246778,-0.046286,0.177252,0.420593,-0.97223,0.422254,-1.014502,-0.97591,-1.023637,-0.442207,-0.772725,-0.632596,-0.850182,-0.863062,-1.010723,-0.902568,-0.894126,0.780224,0.964908,0.612197
'\'(14.9-27.8]\'',0.201823,0.007468,0.292688,0.467352,-0.960142,0.452269,-1.012151,-0.974205,-1.020065,-0.442125,-0.771379,-0.632827,-0.851076,-0.863005,-0.995922,-0.899756,-0.880669,0.821249,0.978652,0.80043
'\'(14.9-27.8]\'',0.226243,0.102863,0.276997,0.43579,-0.957775,0.461786,-1.00745,-0.971931,-1.015975,-0.441798,-0.769966,-0.632769,-0.851207,-0.862891,-0.976277,-0.89924,-0.844297,0.821249,0.985524,0.756509
'\'(14.9-27.8]\'',0.105807,-0.010703,0.316223,0.323567,-0.947927,0.496194,-1.003924,-0.969658,-1.011152,-0.441859,-0.768906,-0.63248,-0.851341,-0.862477,-0.969608,-0.89749,-0.840566,0.787683,0.98896,0.838077
'\'(14.9-27.8]\'',0.161307,0.138447,0.263548,0.227008,-0.943351,0.497658,-0.999223,-0.970227,-1.00578,-0.441572,-0.767375,-0.631671,-0.851458,-0.862183,-0.967488,-0.896386,-0.831979,0.757847,0.968344,1.158073
'\'(14.9-27.8]\'',0.205153,0.093778,0.090955,0.103797,-0.932872,0.538654,-0.995697,-0.967385,-1.00114,-0.441511,-0.76581,-0.630516,-0.850544,-0.86178,-0.946521,-0.892217,-0.808069,0.761577,0.968344,1.13925
'\'(14.9-27.8]\'',0.119127,0.089992,0.049488,0.089535,-0.917533,0.548903,-0.993346,-0.965112,-0.997935,-0.441245,-0.76406,-0.631209,-0.851422,-0.861239,-0.925722,-0.885456,-0.778198,0.690716,0.916805,1.183171
'\'(14.9-27.8]\'',0.011456,0.053651,-0.145521,-0.017778,-0.907654,0.536458,-0.992171,-0.96227,-0.996837,-0.440753,-0.761754,-0.63196,-0.852169,-0.860531,-0.909715,-0.887411,-0.76653,0.672069,0.858393,1.277287
'\'(14.9-27.8]\'',-0.031834,-0.001617,-0.12871,0.039503,-0.900332,0.566473,-0.990996,-0.959429,-0.995554,-0.440364,-0.760122,-0.631556,-0.855331,-0.85958,-0.90648,-0.885582,-0.769598,0.66088,0.817162,1.19572
'\'(14.9-27.8]\'',-0.160041,-0.04023,-0.110778,0.085093,-0.89263,0.552564,-0.98982,-0.957724,-0.993631,-0.439954,-0.758305,-0.630516,-0.857819,-0.858501,-0.898201,-0.880125,-0.762973,0.616126,0.755315,1.101603
'\'(14.9-27.8]\'',-0.212766,-0.184079,-0.06819,0.184925,-0.891999,0.556224,-0.986294,-0.95545,-0.989572,-0.439708,-0.756403,-0.630227,-0.856636,-0.857894,-0.89155,-0.882412,-0.743797,0.683257,0.727827,1.020035
'\'(14.9-27.8]\'',-0.09233,-0.082627,0.191821,0.194978,-0.889979,0.57965,-0.982768,-0.953177,-0.985817,-0.439647,-0.755478,-0.629765,-0.855808,-0.857517,-0.889848,-0.876592,-0.750813,0.698175,0.738135,0.875723
'\'(14.9-27.8]\'',-0.10121,-0.160609,0.079747,0.181184,-0.884582,0.635288,-0.979243,-0.950336,-0.981452,-0.439442,-0.754014,-0.629072,-0.855758,-0.856964,-0.880695,-0.874458,-0.734284,0.675798,0.714083,0.963566
'\'(14.9-27.8]\'',-0.0668,-0.137896,0.238892,0.170429,-0.879627,0.426647,-0.975717,-0.948631,-0.976691,-0.439073,-0.751928,-0.629129,-0.854951,-0.856308,-0.86954,-0.876014,-0.729512,0.634774,0.652236,0.938468
'\'(14.9-27.8]\'',-0.11231,-0.195436,0.245617,0.259272,-0.873693,0.657982,-0.972191,-0.946357,-0.971807,-0.438951,-0.749891,-0.629072,-0.853246,-0.855729,-0.864177,-0.875987,-0.727073,0.608667,0.569773,0.850626
'\'(14.9-27.8]\'',-0.11453,-0.174994,0.196304,0.266286,-0.873094,0.660178,-0.968665,-0.945221,-0.967228,-0.438459,-0.747502,-0.628494,-0.851682,-0.854996,-0.864588,-0.871671,-0.707986,0.58629,0.531977,0.881998
'\'(14.9-27.8]\'',-0.08012,-0.13941,0.380105,0.175105,-0.86271,0.673356,-0.966314,-0.941243,-0.96323,-0.438131,-0.745281,-0.627512,-0.849874,-0.854311,-0.839222,-0.870457,-0.660494,0.560184,0.511361,0.850626
'\'(14.9-27.8]\'',-0.068465,-0.097012,0.217598,0.101459,-0.856145,0.704835,-0.962788,-0.939538,-0.958285,-0.437599,-0.742959,-0.626356,-0.848207,-0.853613,-0.821249,-0.862113,-0.631439,0.459488,0.473566,0.775332
'\'(14.9-27.8]\'',-0.165591,-0.190136,0.107766,0.23262,-0.848507,0.746563,-0.959262,-0.937264,-0.953126,-0.437169,-0.740738,-0.626703,-0.84754,-0.852975,-0.832922,-0.864248,-0.642436,0.452029,0.459822,1.013761
'\'(-inf-14.9]\'',-0.180021,-0.194679,0.145871,0.461507,-0.839101,0.770721,-0.952211,-0.93556,-0.946136,-0.436513,-0.738651,-0.627801,-0.845532,-0.851823,-0.806268,-0.857361,-0.604891,0.481865,0.473566,1.08278
'\'(-inf-14.9]\'',-0.244956,-0.226477,0.115611,0.038334,-0.826382,0.861499,-0.948685,-0.93215,-0.941619,-0.436022,-0.736817,-0.627281,-0.843376,-0.850687,-0.784802,-0.854832,-0.600947,0.504242,0.473566,1.120427
'\'(-inf-14.9]\'',-0.312112,-0.259033,-0.12983,0.071767,-0.815745,0.899566,-0.943984,-0.929308,-0.936368,-0.435591,-0.734949,-0.626183,-0.841966,-0.849318,-0.767922,-0.850048,-0.581138,0.481865,0.456386,1.038859
'\'(-inf-14.9]\'',-0.316552,-0.297645,0.067419,0.131853,-0.804383,0.925189,-0.941633,-0.926467,-0.931759,-0.435346,-0.733368,-0.625952,-0.84013,-0.847904,-0.754261,-0.85142,-0.58107,0.485594,0.43577,0.706314
'\'(-inf-14.9]\'',-0.322102,-0.3302,-0.035688,0.04301,-0.791758,1.005717,-0.938107,-0.923625,-0.926631,-0.435018,-0.731887,-0.62549,-0.837934,-0.846735,-0.740741,-0.849764,-0.560241,0.448299,0.401411,0.568276
'\'(-inf-14.9]\'',-0.328207,-0.370327,-0.055862,0.043711,-0.780837,0.832216,-0.934581,-0.92192,-0.92187,-0.434731,-0.730389,-0.624161,-0.83592,-0.845409,-0.738332,-0.846168,-0.554688,0.44457,0.387667,0.580825
'\'(-inf-14.9]\'',-0.367612,-0.42711,0.108887,0.071065,-0.773231,0.723137,-0.931055,-0.919647,-0.917566,-0.434301,-0.728656,-0.624103,-0.83307,-0.843916,-0.736692,-0.846441,-0.549219,0.459488,0.370487,0.323573
'\'(-inf-14.9]\'',-0.358177,-0.396069,0.016986,0.078079,-0.758807,0.970577,-0.928705,-0.916805,-0.914055,-0.43385,-0.727108,-0.623988,-0.831201,-0.842827,-0.729512,-0.845053,-0.544588,0.437111,0.363615,0.13534
'\'(-inf-14.9]\'',-0.393698,-0.415753,0.019228,0.032489,-0.750348,0.993272,-0.925179,-0.915669,-0.909721,-0.433461,-0.725795,-0.623237,-0.828412,-0.841304,-0.726766,-0.838724,-0.523096,0.481865,0.394539,0.041223
'\'(-inf-14.9]\'',-0.385373,-0.428624,-0.033447,0.006771,-0.738576,1.033536,-0.920478,-0.914532,-0.904349,-0.433011,-0.724382,-0.622139,-0.826328,-0.839846,-0.723376,-0.836153,-0.51925,0.496783,0.415154,0.053772
'\'(-inf-14.9]\'',-0.433658,-0.457394,-0.18923,0.035294,-0.731096,0.004241,-0.916952,-0.912259,-0.89977,-0.43254,-0.723053,-0.62081,-0.824179,-0.838573,-0.720349,-0.834655,-0.494525,0.537807,0.428898,0.091419
'\'(-inf-14.9]\'',-0.474728,-0.491464,-0.135434,-0.004919,-0.725288,-0.011133,-0.91225,-0.910554,-0.894184,-0.431823,-0.721471,-0.620637,-0.820944,-0.837073,-0.746482,-0.841142,-0.570533,0.619856,0.490746,0.172986
'\'(-inf-14.9]\'',-0.507474,-0.602001,-0.188109,0.145881,-0.714115,0.017418,-0.908725,-0.907144,-0.889758,-0.431638,-0.720495,-0.621503,-0.817277,-0.835597,-0.736911,-0.833535,-0.524324,0.642233,0.501053,0.166712
'\'(-inf-14.9]\'',-0.536889,-0.566417,-0.161211,-0.014271,-0.697955,0.12064,-0.904023,-0.905439,-0.883562,-0.43129,-0.719368,-0.621272,-0.813138,-0.834079,-0.702639,-0.825402,-0.466689,0.642233,0.507925,0.166712
'\'(-inf-14.9]\'',-0.552984,-0.592158,-0.248629,-0.121818,-0.675799,1.25389,-0.898147,-0.902597,-0.876267,-0.430696,-0.717988,-0.620059,-0.808943,-0.83248,-0.66668,-0.816964,-0.447645,0.675798,0.542285,0.172986
'\'(-inf-14.9]\'',-0.598495,-0.583073,-0.316994,-0.117142,-0.664847,1.295618,-0.891095,-0.900324,-0.869338,-0.429672,-0.716288,-0.619424,-0.804735,-0.830698,-0.657654,-0.81474,-0.463932,0.724282,0.600696,0.003576
'\'(-inf-14.9]\'',-0.636235,-0.622443,-0.183626,-0.130001,-0.650928,1.354916,-0.885219,-0.898051,-0.862958,-0.429262,-0.714942,-0.618672,-0.800932,-0.828922,-0.64567,-0.80871,-0.448049,0.750388,0.638492,-0.077991
'\'(-inf-14.9]\'',-0.62458,-0.608815,-0.272164,-0.00866,-0.642911,1.403233,-0.879342,-0.895778,-0.857586,-0.429119,-0.714,-0.617459,-0.797531,-0.827275,-0.647076,-0.810997,-0.463987,0.795142,0.638492,-0.096815
'\'(-inf-14.9]\'',-0.697285,-0.643642,-0.16009,-0.01544,-0.634105,1.420071,-0.874641,-0.892936,-0.85258,-0.428709,-0.712418,-0.617748,-0.794889,-0.825399,-0.639593,-0.806344,-0.468457,0.724282,0.59726,-0.385439
'\'(-inf-14.9]\'',-0.660655,-0.634556,-0.253112,-0.137716,-0.629749,1.452282,-0.867589,-0.890663,-0.846933,-0.428177,-0.710483,-0.61717,-0.792244,-0.823828,-0.635011,-0.804683,-0.463213,0.724282,0.576645,-0.636416
'\'(-inf-14.9]\'',-0.65455,-0.655755,-0.310269,-0.111297,-0.619176,1.502795,-0.860537,-0.887821,-0.838966,-0.427952,-0.709255,-0.616362,-0.789246,-0.821893,-0.620606,-0.7983,-0.4683,0.798872,0.635056,-0.818375
'\'(-inf-14.9]\'',-0.697285,-0.703453,-0.256474,-0.100776,-0.605447,1.564289,-0.855836,-0.88498,-0.833258,-0.427521,-0.70811,-0.614571,-0.785683,-0.820154,-0.60605,-0.792712,-0.45859,0.851084,0.717519,-1.213665
'\'(-inf-14.9]\'',-0.6823,-0.720866,-0.118623,0.01659,-0.596609,1.595036,-0.851135,-0.883275,-0.828527,-0.427132,-0.706949,-0.61226,-0.783911,-0.818525,-0.596413,-0.787802,-0.452977,0.899568,0.755315,-1.257586
'\'(-inf-14.9]\'',-0.692845,-0.703453,-0.119744,0.025475,-0.592285,1.619927,-0.844083,-0.879297,-0.820835,-0.426866,-0.706007,-0.612491,-0.780797,-0.817684,-0.606813,-0.790115,-0.45933,0.933133,0.820598,-1.226214
'\'(-inf-14.9]\'',-0.66676,-0.689068,-0.163453,0.030151,-0.584489,1.671904,-0.835856,-0.877023,-0.815371,-0.4266,-0.704964,-0.614051,-0.775702,-0.816731,-0.597449,-0.786966,-0.480596,0.936863,0.803418,-1.219939
'\'(-inf-14.9]\'',-0.62902,-0.658784,-0.195954,0.027813,-0.571107,1.720221,-0.827629,-0.874182,-0.807313,-0.426067,-0.703281,-0.613646,-0.770735,-0.815594,-0.59152,-0.779379,-0.468453,0.977887,0.865265,-1.226214
'\'(-inf-14.9]\'',-0.680635,-0.691339,-0.226214,0.29668,-0.573064,1.719489,-0.819402,-0.871909,-0.796477,-0.424941,-0.700875,-0.612433,-0.763479,-0.814199,-0.614211,-0.780263,-0.523929,0.981617,0.889317,-1.138371
'\'(-inf-14.9]\'',-0.69895,-0.713295,-0.238542,-0.018947,-0.561323,1.743647,-0.809999,-0.869067,-0.78561,-0.424613,-0.699512,-0.612375,-0.757328,-0.812788,-0.597442,-0.776299,-0.503002,1.026371,0.937421,-1.238762
'\'(-inf-14.9]\'',-0.736691,-0.712538,-0.329322,0.037165,-0.551254,1.785375,-0.800597,-0.866226,-0.77685,-0.423835,-0.697358,-0.611566,-0.751458,-0.810874,-0.597135,-0.774643,-0.513493,0.948051,0.906497,-1.483466
'\'(-inf-14.9]\'',-0.763331,-0.75115,-0.143279,0.127177,-0.547814,1.848333,-0.791194,-0.862816,-0.7687,-0.423056,-0.695373,-0.610295,-0.746039,-0.808539,-0.600229,-0.776314,-0.535563,0.914486,0.875573,-1.571308
'\'(-inf-14.9]\'',-0.718931,-0.702696,-0.324839,0.194978,-0.545195,1.901775,-0.782967,-0.859974,-0.760459,-0.422729,-0.693387,-0.610006,-0.742598,-0.806924,-0.612705,-0.761994,-0.566827,0.925674,0.896189,-1.816011
'\'(-inf-14.9]\'',-0.736136,-0.70421,-0.062586,0.157804,-0.544342,1.932522,-0.77474,-0.857133,-0.750874,-0.422626,-0.692125,-0.609429,-0.737984,-0.805233,-0.612834,-0.75803,-0.551739,1.003994,0.961472,-1.935225
'\'(-inf-14.9]\'',-0.710051,-0.705724,-0.110778,0.234724,-0.539482,1.972786,-0.765338,-0.854291,-0.741931,-0.422319,-0.691065,-0.608331,-0.73579,-0.803557,-0.599688,-0.760937,-0.542586,1.261329,1.256965,-2.794823
'\'(-inf-14.9]\'',-0.69895,-0.689825,-0.254232,0.286159,-0.536578,1.993284,-0.755935,-0.850881,-0.734269,-0.422319,-0.690139,-0.607002,-0.734445,-0.802209,-0.602775,-0.755569,-0.550014,1.496287,1.459687,-2.205026
'\'(-inf-14.9]\'',-0.67786,-0.695125,-0.086122,0.356065,-0.533453,2.046725,-0.745358,-0.846335,-0.724929,-0.422114,-0.688827,-0.605327,-0.731369,-0.800846,-0.601469,-0.754402,-0.548892,1.488828,1.483739,-2.744628
'\'(-inf-14.9]\'',-0.63568,-0.692096,-0.0525,0.290835,-0.529413,2.073812,-0.732429,-0.841788,-0.713177,-0.421295,-0.687313,-0.605731,-0.728741,-0.799464,-0.591306,-0.745738,-0.558852,1.61936,1.607433,-2.512473
'\'(-inf-14.9]\'',-0.632905,-0.72238,0.101042,0.30837,-0.526794,2.119933,-0.720676,-0.836673,-0.700906,-0.420414,-0.68531,-0.606944,-0.724014,-0.797802,-0.590591,-0.749208,-0.551004,2.100465,2.002569,-1.696796
'\'(-inf-14.9]\'',-0.577959,-0.63607,0.181735,0.38225,-0.52329,2.164589,-0.707748,-0.832695,-0.686835,-0.420762,-0.684435,-0.606309,-0.719424,-0.796701,-0.598656,-0.755438,-0.572755,2.316776,2.304933,-3.403444
'\'(-inf-14.9]\'',-0.446423,-0.58383,0.31174,0.830908,-0.527867,2.23194,-0.698346,-0.829285,-0.680791,-0.421704,-0.684031,-0.604634,-0.717918,-0.795743,-0.636617,-0.760848,-0.617982,1.973662,2.215598,-4.470098
'\'(-inf-14.9]\'',-0.420893,-0.562631,0.558303,1.233274,-0.541407,2.327842,-0.688943,-0.825875,-0.671725,-0.4215,-0.682332,-0.604634,-0.721286,-0.79538,-0.682624,-0.760606,-0.675952,1.582065,1.86513,-1.119548
'\'(-inf-14.9]\'',-0.409793,-0.521748,0.862022,1.192125,-0.551475,2.399585,-0.679541,-0.823034,-0.664308,-0.420619,-0.679488,-0.604056,-0.722326,-0.794971,-0.706248,-0.755065,-0.691495,1.429156,1.707076,-0.423085
'\'(-inf-14.9]\'',-0.279367,-0.437709,0.792537,0.968848,-0.559713,2.294166,-0.678366,-0.820192,-0.65512,-0.419615,-0.676745,-0.603478,-0.721064,-0.794077,-0.719113,-0.746532,-0.690858,1.611901,1.68646,0.147889
'\'(-inf-14.9]\'',-0.186681,-0.402882,0.614339,0.82366,-0.551539,2.275864,-0.671314,-0.817919,-0.6452,-0.41855,-0.674053,-0.604345,-0.716871,-0.793274,-0.71338,-0.742389,-0.680894,1.824482,1.858258,0.317298
'\'(-inf-14.9]\'',-0.105095,-0.375627,0.563906,0.611138,-0.54794,2.396656,-0.663087,-0.813941,-0.634089,-0.417403,-0.67195,-0.603767,-0.712736,-0.792569,-0.68332,-0.741033,-0.654528,1.966203,2.047236,-0.216029
'\'(-inf-14.9]\'',-0.10676,-0.304459,0.486575,0.401889,-0.539198,2.476452,-0.653684,-0.810531,-0.624383,-0.416543,-0.670132,-0.6029,-0.706349,-0.79137,-0.660067,-0.731191,-0.635025,2.074358,2.229342,-1.282684
'\'(-inf-14.9]\'',-0.093995,-0.24919,0.435021,0.28312,-0.531086,2.608226,-0.643107,-0.808258,-0.614432,-0.416195,-0.668281,-0.602265,-0.697176,-0.790123,-0.629171,-0.727653,-0.622881,2.320505,2.370217,-2.60659
'\'(-inf-14.9]\'',-0.05126,-0.238591,0.139147,0.270962,-0.5249,2.720965,-0.633704,-0.805416,-0.606434,-0.416645,-0.667608,-0.601456,-0.691408,-0.789173,-0.616732,-0.727122,-0.622014,2.410013,2.542015,-4.419903
'\'(-inf-14.9]\'',-0.060695,-0.150767,0.25122,0.28499,-0.52206,2.820527,-0.624302,-0.80087,-0.59453,-0.416072,-0.666414,-0.602785,-0.690897,-0.78833,-0.62873,-0.716844,-0.621985,2.260833,2.504219,-4.702253
'\'(-inf-14.9]\'',-0.08567,-0.164395,0.338638,0.358636,-0.519787,2.890806,-0.614899,-0.79746,-0.581863,-0.415355,-0.664428,-0.603998,-0.690074,-0.787547,-0.636469,-0.711035,-0.627585,2.462226,2.621042,-2.336789
'\'(-inf-14.9]\'',-0.12341,-0.185594,0.35657,0.259272,-0.516473,2.988904,-0.607848,-0.793482,-0.573041,-0.414495,-0.661416,-0.603536,-0.688496,-0.786592,-0.626961,-0.708285,-0.629501,2.454767,2.610734,-1.608954
'\'(-inf-14.9]\'',-0.148385,-0.249947,0.365536,0.272131,-0.514169,1.986695,-0.601971,-0.788935,-0.567486,-0.412774,-0.657613,-0.602034,-0.683414,-0.785582,-0.6349,-0.711219,-0.622091,2.659889,2.686325,-1.897578
'\'(-inf-14.9]\'',-0.153936,-0.237077,0.542612,0.300888,-0.513759,2.078205,-0.594919,-0.784957,-0.561747,-0.413327,-0.656772,-0.601572,-0.676517,-0.78409,-0.6242,-0.714541,-0.594663,2.823987,2.820328,-3.390895
'\'(-inf-14.9]\'',-0.13784,-0.256761,0.328551,0.378509,-0.507636,3.203401,-0.585517,-0.779842,-0.556619,-0.413225,-0.655745,-0.601167,-0.671456,-0.782874,-0.614348,-0.71043,-0.614413,2.611406,2.768788,-4.150102
'\'(-inf-14.9]\'',-0.184461,-0.284774,0.334155,0.367988,-0.504132,3.412774,-0.573764,-0.773591,-0.548836,-0.412877,-0.653794,-0.599954,-0.666899,-0.782105,-0.601983,-0.706903,-0.594306,2.846364,2.895919,-3.604226
'\'(-inf-14.9]\'',-0.142835,-0.22572,0.422693,0.458936,-0.505268,3.529174,-0.565537,-0.768476,-0.540716,-0.412877,-0.651707,-0.599896,-0.661129,-0.780805,-0.604396,-0.699663,-0.594854,3.036568,2.95433,-2.424631
'\'(-inf-14.9]\'',-0.131735,-0.263575,0.464161,0.566716,-0.508046,3.604578,-0.554959,-0.76393,-0.532811,-0.412856,-0.649738,-0.600705,-0.659159,-0.779858,-0.613552,-0.701582,-0.613869,3.260337,3.153616,-0.962687
'\'(-inf-14.9]\'',-0.108425,-0.248433,0.609856,0.658131,-0.511107,3.634593,-0.551433,-0.759383,-0.526858,-0.412569,-0.64708,-0.600532,-0.655346,-0.779052,-0.628231,-0.707823,-0.601088,3.226772,3.218899,-0.573672
'\'(-inf-14.9]\'',-0.085115,-0.241619,0.784692,0.746741,-0.517704,3.705604,-0.546732,-0.754268,-0.519777,-0.411975,-0.644673,-0.599261,-0.650016,-0.778222,-0.650129,-0.708548,-0.606246,2.786692,2.97151,-0.567397
'\'(-inf-14.9]\'',-0.06902,-0.22042,0.985304,0.930272,-0.526415,3.715853,-0.543206,-0.75029,-0.515687,-0.410869,-0.641409,-0.597239,-0.644082,-0.777107,-0.670337,-0.706603,-0.634587,2.790421,3.026485,0.229456
'\'(-inf-14.9]\'',-0.049595,-0.209064,1.080566,0.856392,-0.536831,3.673392,-0.53968,-0.746312,-0.507781,-0.40964,-0.638902,-0.597759,-0.63847,-0.776079,-0.708121,-0.71155,-0.68482,3.144723,3.215463,0.242005
'\'(-inf-14.9]\'',0.144102,-0.138653,1.134362,0.849612,-0.536894,3.684374,-0.536154,-0.742902,-0.503752,-0.409804,-0.638212,-0.599087,-0.631213,-0.774855,-0.671251,-0.699611,-0.609407,3.178289,3.242951,-0.837198
'\'(-inf-14.9]\'',0.258988,-0.078842,1.117551,0.95599,-0.540965,3.698283,-0.536154,-0.738356,-0.500302,-0.40964,-0.636193,-0.599838,-0.62718,-0.773357,-0.683694,-0.703832,-0.624874,2.920954,3.119256,-1.132097
'\'(-inf-14.9]\'',0.326144,0.029424,1.252039,1.098606,-0.549929,3.554065,-0.532628,-0.733241,-0.499631,-0.408739,-0.633265,-0.598394,-0.618422,-0.77244,-0.700585,-0.701708,-0.627173,2.8762,3.105513,-1.288958
'\'(-inf-14.9]\'',0.431595,0.117248,1.328249,1.083643,-0.551286,3.363725,-0.522051,-0.728694,-0.491634,-0.408821,-0.63133,-0.597643,-0.61233,-0.77131,-0.712591,-0.696635,-0.625227,2.80161,3.057409,-1.138371
'\'(14.9-27.8]\'',0.528721,0.243684,1.460496,1.157056,-0.558924,3.200473,-0.509122,-0.723579,-0.481805,-0.408657,-0.629546,-0.596661,-0.606664,-0.770276,-0.717233,-0.704095,-0.606408,3.006732,3.153616,-0.523476
'\'(14.9-27.8]\'',0.586441,0.267912,1.333853,1.047171,-0.569781,2.993296,-0.503246,-0.719033,-0.473716,-0.408555,-0.628621,-0.595679,-0.602361,-0.770099,-0.723302,-0.695957,-0.599167,2.932142,3.112384,0.235731
'\'(14.9-27.8]\'',0.664697,0.305767,1.394373,1.297334,-0.574768,2.816867,-0.500895,-0.713918,-0.469473,-0.407858,-0.626315,-0.595332,-0.600116,-0.76946,-0.739561,-0.698244,-0.607062,2.596488,2.947458,1.227092
'\'(14.9-27.8]\'',0.771813,0.420847,1.551276,1.443458,-0.580449,2.662399,-0.500895,-0.709372,-0.465658,-0.406732,-0.624094,-0.595679,-0.593711,-0.76897,-0.744161,-0.691903,-0.607857,2.309317,2.710377,0.656118
'\'(14.9-27.8]\'',0.936094,0.593466,1.525499,1.404414,-0.589161,2.494754,-0.496194,-0.704825,-0.457905,-0.405175,-0.622193,-0.594754,-0.592037,-0.768564,-0.761052,-0.686425,-0.607028,2.003498,2.40114,0.13534
'\'(14.9-27.8]\'',1.102596,0.66312,1.578174,1.132507,-0.59298,2.352732,-0.497369,-0.699142,-0.453723,-0.403742,-0.619837,-0.59331,-0.592552,-0.768239,-0.766593,-0.679028,-0.611791,1.8394,2.253394,0.229456
'\'(14.9-27.8]\'',1.200832,0.834225,1.473945,0.802852,-0.593453,2.22828,-0.500895,-0.695164,-0.451617,-0.403066,-0.616101,-0.591461,-0.59247,-0.768007,-0.779047,-0.678944,-0.647046,1.895343,2.198419,0.380043
'\'(14.9-27.8]\'',1.204162,0.912207,1.347302,0.696474,-0.586541,2.088454,-0.498545,-0.691186,-0.445115,-0.402574,-0.607099,-0.592501,-0.591054,-0.766626,-0.746904,-0.682172,-0.587928,1.880425,2.129699,0.499257
'\'(14.9-27.8]\'',1.189177,0.949305,1.196002,0.639194,-0.588845,1.901775,-0.497369,-0.686071,-0.442734,-0.40112,-0.600806,-0.593599,-0.590845,-0.766019,-0.757688,-0.680842,-0.623281,1.962474,2.133135,0.769058
'\'(14.9-27.8]\'',1.173082,0.972018,1.165742,0.599448,-0.583385,1.834424,-0.496194,-0.684934,-0.440933,-0.399829,-0.59771,-0.593426,-0.59029,-0.765358,-0.743099,-0.667988,-0.611647,1.858048,2.016313,0.474159
'\'(14.9-27.8]\'',1.03877,0.944763,1.123154,0.673094,-0.574737,1.732666,-0.487967,-0.682661,-0.434523,-0.399297,-0.595455,-0.591866,-0.591995,-0.764266,-0.720682,-0.666621,-0.554964,1.775999,1.906362,0.386317
'\'(14.9-27.8]\'',1.132011,0.975047,0.974096,0.542168,-0.565899,1.69899,-0.483266,-0.679819,-0.430525,-0.397904,-0.593015,-0.591057,-0.593152,-0.763101,-0.709627,-0.658299,-0.545629,1.757351,1.837643,0.480434
'\'(14.9-27.8]\'',1.094271,1.077256,0.914697,0.431114,-0.554,1.67776,-0.480915,-0.676978,-0.425244,-0.397085,-0.591265,-0.589959,-0.590247,-0.761679,-0.698657,-0.646649,-0.535189,1.861777,1.93385,0.555727
'\'(14.9-27.8]\'',1.016015,0.856939,0.79702,0.26161,-0.540871,1.719489,-0.476214,-0.674705,-0.417216,-0.396306,-0.589364,-0.588804,-0.585356,-0.759771,-0.671621,-0.643621,-0.497831,2.014687,1.940721,0.643569
'\'(14.9-27.8]\'',0.872269,0.808484,1.036858,0.391368,-0.550592,1.704847,-0.472688,-0.671295,-0.411111,-0.395753,-0.587816,-0.588746,-0.580666,-0.758056,-0.649782,-0.651359,-0.472307,2.148948,2.02662,0.819253
'\'(14.9-27.8]\'',0.752388,0.741102,0.744345,0.265117,-0.515305,1.69899,-0.469162,-0.669022,-0.406075,-0.395282,-0.586267,-0.589035,-0.579501,-0.75609,-0.622775,-0.641586,-0.435985,2.096735,1.995697,0.762784
'\'(14.9-27.8]\'',0.638057,0.616937,0.701757,0.23449,-0.506689,1.783179,-0.464461,-0.66618,-0.403633,-0.394381,-0.583575,-0.588168,-0.575519,-0.754185,-0.608101,-0.633495,-0.452973,2.051981,1.964773,0.674941
'\'(14.9-27.8]\'',0.575341,0.533655,0.598649,0.189133,-0.495484,1.788303,-0.460935,-0.663338,-0.401588,-0.394012,-0.581371,-0.586608,-0.570735,-0.752304,-0.599559,-0.626597,-0.447921,2.111653,2.016313,0.8569
'\'(14.9-27.8]\'',0.48876,0.453402,0.460798,0.078313,-0.48428,1.810266,-0.457409,-0.659929,-0.400794,-0.393521,-0.579486,-0.584817,-0.565388,-0.750618,-0.590088,-0.623222,-0.444305,2.171325,2.064416,0.863175
'\'(14.9-27.8]\'',0.419385,0.437503,0.473126,-0.004919,-0.470298,1.830764,-0.449182,-0.656519,-0.394506,-0.392763,-0.577013,-0.585337,-0.563329,-0.748718,-0.551897,-0.610968,-0.386016,2.033334,2.030056,0.706314
'\'(14.9-27.8]\'',0.273418,0.28154,0.420452,-0.059861,-0.455022,1.833692,-0.443306,-0.650836,-0.384739,-0.392271,-0.573647,-0.587937,-0.553466,-0.746511,-0.543022,-0.611619,-0.39233,1.98858,2.009441,0.794156
'\'(14.9-27.8]\'',0.212368,0.240656,0.438384,-0.029234,-0.446437,1.851994,-0.43978,-0.649699,-0.379946,-0.391473,-0.570787,-0.586608,-0.544358,-0.744012,-0.533614,-0.615499,-0.381151,2.171325,2.146879,0.894547
'\'(14.9-27.8]\'',0.199603,0.228542,0.391313,0.080417,-0.43498,1.848333,-0.435078,-0.646289,-0.37436,-0.390735,-0.56801,-0.584817,-0.535836,-0.741654,-0.521752,-0.605332,-0.373762,2.260833,2.25683,0.850626
'\'(14.9-27.8]\'',0.214033,0.173274,0.310619,0.038334,-0.425322,1.89299,-0.432728,-0.644016,-0.372498,-0.390387,-0.565924,-0.584471,-0.525347,-0.739632,-0.511127,-0.601688,-0.384062,2.436119,2.404576,1.321209
'\'(14.9-27.8]\'',0.063071,0.086207,0.182855,0.043711,-0.413296,1.931058,-0.430377,-0.641174,-0.369873,-0.38967,-0.564073,-0.582795,-0.519592,-0.737372,-0.503832,-0.593655,-0.384465,2.536816,2.511091,0.951017
'\'(14.9-27.8]\'',0.077502,0.096806,0.405882,0.039503,-0.403512,1.943503,-0.425676,-0.638333,-0.364593,-0.389527,-0.562659,-0.581755,-0.51362,-0.735435,-0.498236,-0.602608,-0.385421,2.495791,2.545451,0.718862
'\'(14.9-27.8]\'',0.058631,0.040023,0.342,0.175105,-0.395843,1.966197,-0.42215,-0.635491,-0.360045,-0.389506,-0.561498,-0.582217,-0.509921,-0.733445,-0.495823,-0.605716,-0.400161,2.28321,2.366781,0.060046
'\'(14.9-27.8]\'',0.022001,-0.008431,0.502266,0.202693,-0.385995,1.938378,-0.418624,-0.633218,-0.35803,-0.389076,-0.559143,-0.581524,-0.50606,-0.731146,-0.501534,-0.597803,-0.410015,2.204891,2.270574,0.147889
'\'(14.9-27.8]\'',0.015341,-0.026602,0.316223,0.314215,-0.377,1.868832,-0.413923,-0.629808,-0.35452,-0.388953,-0.556703,-0.581409,-0.500569,-0.729503,-0.502355,-0.595064,-0.383683,2.193702,2.129699,0.74396
'\'(14.9-27.8]\'',-0.033499,-0.030387,0.275877,0.256934,-0.365859,1.831496,-0.411572,-0.626398,-0.352414,-0.388175,-0.552917,-0.579964,-0.494871,-0.726804,-0.495634,-0.584218,-0.374692,2.066899,1.971645,0.725137
'\'(14.9-27.8]\'',-0.054035,-0.052343,0.52468,0.156869,-0.361913,1.763413,-0.409222,-0.623557,-0.348201,-0.387335,-0.54871,-0.577538,-0.491915,-0.724625,-0.49465,-0.586663,-0.360849,2.007228,1.944157,1.340032
'\'(14.9-27.8]\'',-0.11897,-0.111397,0.477609,0.087431,-0.353549,1.748039,-0.406871,-0.621283,-0.340723,-0.386229,-0.544335,-0.578462,-0.492422,-0.723059,-0.495708,-0.58231,-0.37827,1.98858,1.896054,1.283562
'\'(14.9-27.8]\'',-0.060695,-0.089441,0.383467,0.185626,-0.349415,1.731202,-0.399819,-0.617873,-0.333733,-0.384877,-0.540684,-0.580195,-0.48898,-0.72068,-0.489783,-0.57608,-0.361337,2.007228,1.885746,1.271013
'\'(14.9-27.8]\'',-0.05792,-0.085656,0.373381,0.134424,-0.338715,1.728273,-0.393943,-0.614464,-0.327811,-0.384263,-0.538648,-0.578751,-0.483166,-0.718597,-0.486815,-0.573094,-0.363696,2.167596,2.0438,1.440423
'\'(14.9-27.8]\'',-0.058475,-0.0637,0.431659,0.21602,-0.332529,1.762681,-0.391592,-0.611054,-0.325614,-0.383485,-0.5371,-0.577133,-0.484681,-0.716526,-0.491278,-0.565466,-0.380777,2.044522,1.981953,1.36513
'\'(14.9-27.8]\'',-0.11453,-0.171966,0.500024,0.190302,-0.323881,1.723881,-0.389242,-0.607644,-0.322012,-0.382522,-0.534727,-0.57644,-0.482694,-0.714426,-0.48784,-0.561717,-0.374735,1.854318,1.858258,1.189445
'\'(14.9-27.8]\'',-0.10454,-0.137139,0.456315,0.188666,-0.319241,1.679957,-0.385716,-0.603666,-0.31786,-0.381047,-0.53084,-0.574418,-0.48091,-0.712489,-0.488899,-0.565071,-0.36475,1.563418,1.600561,1.032584
'\'(14.9-27.8]\'',-0.093995,-0.147738,0.497783,0.122501,-0.313276,1.611142,-0.383365,-0.600256,-0.314106,-0.379654,-0.527996,-0.573205,-0.474918,-0.710547,-0.499058,-0.564025,-0.37397,1.574606,1.610869,0.907096
'\'(14.9-27.8]\'',-0.1334,-0.181808,0.454074,0.244777,-0.307216,1.559897,-0.381015,-0.596278,-0.309039,-0.3782,-0.525556,-0.572916,-0.471419,-0.70822,-0.492559,-0.55543,-0.360649,1.604442,1.634921,0.907096
'\'(14.9-27.8]\'',-0.14228,-0.17348,0.515714,0.263948,-0.300746,1.49767,-0.378664,-0.592868,-0.306444,-0.376746,-0.52347,-0.571818,-0.465873,-0.705636,-0.485061,-0.538296,-0.346105,1.611901,1.628049,0.919644
'\'(14.9-27.8]\'',-0.112865,-0.199221,0.487696,0.25109,-0.294812,1.455942,-0.373963,-0.589458,-0.30388,-0.375824,-0.521518,-0.571067,-0.467305,-0.70302,-0.492163,-0.556423,-0.350188,1.593254,1.586817,0.794156
'\'(14.9-27.8]\'',-0.161706,-0.125025,0.38795,0.193342,-0.288184,1.397376,-0.368086,-0.58548,-0.299393,-0.374923,-0.519869,-0.569045,-0.462636,-0.700596,-0.485149,-0.553495,-0.332724,1.417968,1.459687,0.467885
'\'(14.9-27.8]\'',-0.161151,-0.194679,0.486575,0.155232,-0.282945,1.35638,-0.36221,-0.58207,-0.294204,-0.373366,-0.517463,-0.566041,-0.460465,-0.698197,-0.465053,-0.545872,-0.304871,1.272517,1.318812,0.003576
'\'(-inf-14.9]\'',-0.227196,-0.284017,0.340879,0.068727,-0.279063,1.33149,-0.357509,-0.576955,-0.287062,-0.373039,-0.51578,-0.567774,-0.458498,-0.695627,-0.45432,-0.539889,-0.268996,1.231493,1.270709,0.041223
'\'(14.9-27.8]\'',-0.10565,-0.211335,0.514594,0.081586,-0.275433,1.204841,-0.359859,-0.572409,-0.287062,-0.37226,-0.513963,-0.570027,-0.458098,-0.692951,-0.468454,-0.545698,-0.295702,1.089772,1.157322,-0.09054
'\'(-inf-14.9]\'',-0.131735,-0.218906,0.533646,0.136295,-0.272687,1.010841,-0.366911,-0.567294,-0.29048,-0.37056,-0.510564,-0.567947,-0.452297,-0.690169,-0.48291,-0.549983,-0.307183,0.839896,0.947728,-0.42936
'\'(-inf-14.9]\'',-0.186681,-0.218149,0.623305,0.15757,-0.266785,0.800736,-0.371612,-0.563316,-0.293655,-0.369024,-0.506407,-0.56581,-0.449302,-0.687431,-0.480608,-0.546072,-0.286405,0.761577,0.841214,-0.423085
'\'(-inf-14.9]\'',-0.14783,-0.222692,0.627788,0.158739,-0.262777,0.588435,-0.368086,-0.558769,-0.290816,-0.366771,-0.501864,-0.565059,-0.449119,-0.684803,-0.476726,-0.537108,-0.269634,0.873461,0.875573,-0.077991
'\'(14.9-27.8]\'',-0.09899,-0.137896,0.667014,0.086262,-0.265712,0.463983,-0.363385,-0.555359,-0.285017,-0.36501,-0.498465,-0.562921,-0.445122,-0.682123,-0.484642,-0.536445,-0.269851,0.888379,0.892753,-0.065442
'\'(14.9-27.8]\'',-0.127295,-0.188622,0.491058,0.046517,-0.255675,0.415666,-0.36221,-0.551381,-0.28462,-0.363023,-0.494831,-0.561246,-0.442828,-0.678826,-0.472022,-0.534306,-0.250628,0.795142,0.830906,-0.153285
'\'(14.9-27.8]\'',-0.12341,-0.204521,0.322948,0.258805,-0.252045,0.276572,-0.361035,-0.547403,-0.282666,-0.361302,-0.491482,-0.56113,-0.440255,-0.675314,-0.475516,-0.527871,-0.253356,0.73547,0.837778,0.009851
'\'(14.9-27.8]\'',-0.1001,-0.170452,0.596408,0.203161,-0.241125,0.166029,-0.356333,-0.542856,-0.277538,-0.35952,-0.487898,-0.560033,-0.43707,-0.671903,-0.469923,-0.490534,-0.248189,0.798872,0.84465,0.361219
'\'(14.9-27.8]\'',-0.172251,-0.187865,0.548216,0.145881,-0.235223,0.149923,-0.353983,-0.538878,-0.27473,-0.357984,-0.4846,-0.558935,-0.437216,-0.669284,-0.461219,-0.518692,-0.235854,0.787683,0.858393,0.373768
'\'(14.9-27.8]\'',-0.164481,-0.224963,0.582959,0.052128,-0.229321,0.114052,-0.351632,-0.534332,-0.271922,-0.355833,-0.482261,-0.556046,-0.429529,-0.666264,-0.453173,-0.521683,-0.214719,0.720552,0.799982,0.141614
'\'(14.9-27.8]\'',-0.187236,-0.23632,0.321827,0.028982,-0.222977,0.073055,-0.346931,-0.530354,-0.269755,-0.35188,-0.477768,-0.552233,-0.410586,-0.659749,-0.433502,-0.4927,-0.182268,0.649692,0.765622,-0.492104
'\'(-inf-14.9]\'',-0.183351,-0.243891,0.324068,-0.030169,-0.217643,0.044505,-0.339879,-0.527512,-0.262337,-0.350754,-0.475093,-0.553158,-0.398658,-0.652887,-0.441522,-0.535983,-0.217013,0.601208,0.679723,-0.209754
'\'(-inf-14.9]\'',-0.211656,-0.264332,0.342,-0.01544,-0.210036,0.034988,-0.335178,-0.52467,-0.256782,-0.350651,-0.474487,-0.555757,-0.400995,-0.649697,-0.413905,-0.504723,-0.174896,0.608667,0.655672,0.103967
'\'(-inf-14.9]\'',-0.237741,-0.258276,0.317344,-0.087917,-0.202304,0.043772,-0.330477,-0.521261,-0.25257,-0.350017,-0.473444,-0.554429,-0.399192,-0.645148,-0.411081,-0.500254,-0.167817,0.601208,0.641928,0.085144
'\'(-inf-14.9]\'',-0.226086,-0.290074,0.141388,-0.073889,-0.19173,0.064271,-0.3246,-0.516714,-0.246617,-0.347948,-0.471088,-0.551655,-0.397539,-0.640456,-0.397336,-0.494824,-0.171433,0.783954,0.789674,0.417689
'\'(-inf-14.9]\'',-0.218871,-0.26509,-0.011032,-0.098438,-0.184503,0.086233,-0.321074,-0.513304,-0.242558,-0.347559,-0.470213,-0.551078,-0.395187,-0.636392,-0.384108,-0.494944,-0.146623,0.962969,0.951164,0.486708
'\'(-inf-14.9]\'',-0.228306,-0.293102,0.070782,-0.139353,-0.179074,0.089893,-0.315198,-0.508758,-0.236483,-0.348091,-0.469927,-0.549749,-0.391566,-0.630902,-0.372716,-0.485707,-0.138001,0.95924,0.9546,0.430238
'\'(-inf-14.9]\'',-0.320437,-0.362756,0.040522,-0.15338,-0.168122,0.105267,-0.311672,-0.505348,-0.232759,-0.348132,-0.469186,-0.548651,-0.392849,-0.626547,-0.358212,-0.481239,-0.115609,0.996535,0.985524,0.555727
'\'(-inf-14.9]\'',-0.344302,-0.315816,0.050608,-0.123688,-0.162662,0.136746,-0.305795,-0.501938,-0.22638,-0.347743,-0.467638,-0.548767,-0.391998,-0.622678,-0.342065,-0.4685,-0.099241,1.089772,1.050807,0.656118
'\'(-inf-14.9]\'',-0.350962,-0.358213,-0.088363,-0.197802,-0.155497,0.174082,-0.301094,-0.49796,-0.220916,-0.34719,-0.465737,-0.547785,-0.383107,-0.618754,-0.333537,-0.477659,-0.107442,1.279976,1.226041,0.762784
'\'(-inf-14.9]\'',-0.390923,-0.383198,0.058453,-0.243393,-0.14,0.21947,-0.297568,-0.495118,-0.215758,-0.345428,-0.463162,-0.546745,-0.38094,-0.614429,-0.304225,-0.479998,-0.051945,1.406779,1.332556,0.781607
'\'(-inf-14.9]\'',-0.389258,-0.405911,-0.030085,-0.21183,-0.132614,0.198972,-0.292867,-0.491708,-0.212675,-0.346043,-0.462473,-0.54426,-0.381715,-0.610509,-0.293315,-0.477411,-0.051184,1.216575,1.198554,0.74396
'\'(-inf-14.9]\'',-0.405908,-0.425596,-0.146642,-0.155718,-0.123493,0.192383,-0.290517,-0.488867,-0.209653,-0.346657,-0.461211,-0.541661,-0.378525,-0.605978,-0.281139,-0.468853,-0.043455,1.25387,1.219169,0.775332
'\'(-inf-14.9]\'',-0.435323,-0.449066,0.046125,-0.076929,-0.120589,0.165297,-0.285815,-0.483752,-0.203304,-0.345428,-0.457677,-0.542007,-0.376025,-0.602654,-0.281716,-0.466508,-0.031086,1.168091,1.143578,0.536904
'\'(-inf-14.9]\'',-0.422003,-0.434681,0.000175,-0.155718,-0.106039,0.15944,-0.283465,-0.479206,-0.200862,-0.345121,-0.453807,-0.545243,-0.37461,-0.600188,-0.270494,-0.461803,-0.015683,0.989076,0.98896,0.405141
'\'(-inf-14.9]\'',-0.418673,-0.464965,-0.025602,-0.217675,-0.097359,0.152119,-0.279939,-0.475796,-0.195215,-0.344281,-0.450391,-0.543683,-0.370733,-0.597077,-0.265572,-0.449721,-0.020795,0.985346,0.97178,0.505532
'\'(-inf-14.9]\'',-0.519129,-0.493735,-0.201558,-0.186346,-0.08969,0.147727,-0.271712,-0.470681,-0.187187,-0.342991,-0.447026,-0.540794,-0.363092,-0.592845,-0.252145,-0.452944,0.006913,1.089772,1.085167,0.543178
'\'(-inf-14.9]\'',-0.472508,-0.466479,-0.082759,-0.179098,-0.082431,0.135282,-0.268186,-0.465566,-0.182364,-0.342254,-0.444451,-0.540563,-0.355286,-0.588772,-0.256723,-0.446614,-0.011753,1.17555,1.13327,0.637295
'\'(-inf-14.9]\'',-0.536889,-0.49752,-0.208282,-0.204816,-0.070942,0.118444,-0.262309,-0.461588,-0.175283,-0.340902,-0.442365,-0.538079,-0.348916,-0.584992,-0.250165,-0.443176,-0.011264,1.160632,1.119527,0.267103
'\'(-inf-14.9]\'',-0.498039,-0.504334,-0.048017,-0.142392,-0.063872,0.09941,-0.256433,-0.457041,-0.167163,-0.340267,-0.440884,-0.536519,-0.342756,-0.581001,-0.249813,-0.441136,-0.013172,1.197927,1.157322,0.204358
'\'(-inf-14.9]\'',-0.476948,-0.505091,-0.153366,-0.174422,-0.059958,0.080376,-0.250556,-0.453063,-0.162188,-0.339878,-0.440076,-0.537097,-0.342019,-0.576791,-0.238484,-0.436988,0.008792,1.25387,1.191682,0.166712
'\'(-inf-14.9]\'',-0.515799,-0.491464,-0.257595,-0.222351,-0.049259,0.037916,-0.24468,-0.449085,-0.153977,-0.339796,-0.439252,-0.536865,-0.34088,-0.572855,-0.245835,-0.439359,-0.012356,1.145714,1.085167,-0.121912
'\'(-inf-14.9]\'',-0.519684,-0.525533,-0.275526,-0.283606,-0.040958,0.015222,-0.239979,-0.44397,-0.148452,-0.339878,-0.437838,-0.53675,-0.33649,-0.568726,-0.235831,-0.424113,0.013814,1.0301,0.916805,-0.303871
'\'(-inf-14.9]\'',-0.571854,-0.574745,-0.16009,-0.287814,-0.030195,-0.030167,-0.235277,-0.44056,-0.144515,-0.33955,-0.435331,-0.534555,-0.334024,-0.565635,-0.230053,-0.417952,0.020421,1.007723,0.940857,-0.234852
'\'(-inf-14.9]\'',-0.559644,-0.547489,-0.097329,-0.275189,-0.021326,-0.047737,-0.230576,-0.436582,-0.139203,-0.339181,-0.433985,-0.531897,-0.329652,-0.562158,-0.219683,-0.412615,0.037987,1.052477,0.999268,-0.397988
'\'(-inf-14.9]\'',-0.565194,-0.552789,-0.111899,-0.291321,-0.013025,-0.049201,-0.2247,-0.430331,-0.130443,-0.339386,-0.433396,-0.532821,-0.32753,-0.554587,-0.212925,-0.407121,0.039848,1.071125,0.999268,-0.636416
'\'(-inf-14.9]\'',-0.662875,-0.626228,-0.260957,-0.225858,-0.00463,-0.083608,-0.219999,-0.424079,-0.124735,-0.339775,-0.433312,-0.536808,-0.314171,-0.550847,-0.223144,-0.417242,0.040528,1.078584,0.985524,-0.736807
'\'(-inf-14.9]\'',-0.63568,-0.599729,-0.291217,-0.140522,0.001493,-0.054325,-0.212947,-0.418965,-0.118325,-0.339939,-0.43205,-0.534786,-0.31497,-0.547532,-0.217252,-0.412968,0.046472,1.138255,1.00614,-0.92504
'\'(-inf-14.9]\'',-0.61126,-0.564146,-0.141038,-0.188216,0.006859,-0.044808,-0.202369,-0.414418,-0.106817,-0.340718,-0.43099,-0.533168,-0.311623,-0.542269,-0.218062,-0.398936,0.038595,1.134526,0.985524,-1.031706
'\'(-inf-14.9]\'',-0.638455,-0.626985,-0.137676,-0.128832,0.010709,-0.047005,-0.195317,-0.409303,-0.100468,-0.341578,-0.430047,-0.533746,-0.305223,-0.538859,-0.230712,-0.393836,0.008617,1.052477,0.933985,-1.213665
'\'(-inf-14.9]\'',-0.665095,-0.642884,-0.100691,-0.089086,0.014307,-0.118016,-0.190616,-0.403052,-0.096653,-0.341885,-0.427305,-0.531955,-0.305277,-0.534532,-0.230764,-0.393605,0.009501,0.877191,0.786238,-1.401898
'\'(-inf-14.9]\'',-0.590169,-0.636828,-0.166815,-0.048873,0.015633,-0.192687,-0.185915,-0.397369,-0.092471,-0.341004,-0.423182,-0.530799,-0.296915,-0.5297,-0.252826,-0.389757,-0.065308,0.81379,0.731263,-1.383075
'\'(-inf-14.9]\'',-0.663985,-0.683011,-0.080518,-0.082072,0.017243,-0.016258,-0.185915,-0.391686,-0.092257,-0.340677,-0.41948,-0.531839,-0.291685,-0.524026,-0.230801,-0.377654,-0.007678,0.824978,0.734699,-1.169744
'\'(-inf-14.9]\'',-0.631795,-0.653484,-0.1444,-0.075058,0.025102,-0.006008,-0.182389,-0.384866,-0.08835,-0.340349,-0.416434,-0.531781,-0.289298,-0.5191,-0.238399,-0.378422,-0.019673,0.843625,0.745007,-1.138371
'\'(-inf-14.9]\'',-0.614035,-0.6179,-0.132072,0.052361,0.028479,-0.005276,-0.175337,-0.379183,-0.081483,-0.339202,-0.4128,-0.531666,-0.286646,-0.515611,-0.241286,-0.387096,-0.012382,0.81006,0.710647,-1.138371
'\'(-inf-14.9]\'',-0.599605,-0.611086,-0.08388,-0.071551,0.03719,0.015222,-0.169461,-0.371795,-0.077636,-0.338936,-0.409569,-0.529586,-0.286249,-0.511362,-0.233636,-0.380309,0.001547,0.798872,0.710647,-1.044255
'\'(-inf-14.9]\'',-0.62347,-0.626228,-0.137676,0.01472,0.039841,0.016686,-0.164759,-0.367248,-0.072508,-0.337911,-0.406338,-0.525831,-0.288859,-0.507295,-0.220657,-0.378285,0.055765,0.787683,0.714083,-1.000334
'\'(-inf-14.9]\'',-0.602935,-0.6179,-0.021119,0.041841,0.051203,0.041576,-0.150656,-0.360997,-0.059078,-0.337399,-0.403932,-0.526524,-0.291066,-0.503973,-0.232633,-0.353692,-0.016405,0.836166,0.755315,-0.630142
'\'(-inf-14.9]\'',-0.637345,-0.634556,-0.049137,0.028982,0.058778,0.042308,-0.144779,-0.354745,-0.051203,-0.336846,-0.401846,-0.529644,-0.290127,-0.498893,-0.211911,-0.359958,0.024976,0.921945,0.824034,-0.473281
'\'(-inf-14.9]\'',-0.64789,-0.624714,-0.009912,-0.032039,0.065217,0.037916,-0.137728,-0.347926,-0.044426,-0.33615,-0.400011,-0.526928,-0.287949,-0.494977,-0.200938,-0.356883,0.046379,0.977887,0.848086,-0.423085
'\'(-inf-14.9]\'',-0.622915,-0.615629,0.06854,0.045348,0.06629,0.065003,-0.134202,-0.340538,-0.040641,-0.335208,-0.398076,-0.52404,-0.284636,-0.490994,-0.206138,-0.362776,0.032221,1.011453,0.879009,-0.285048
'\'(-inf-14.9]\'',-0.60127,-0.619414,0.178372,0.014954,0.071151,0.096482,-0.131851,-0.333718,-0.036582,-0.335597,-0.398245,-0.524098,-0.286122,-0.485853,-0.19932,-0.36439,0.029442,1.015182,0.916805,-0.253676
'\'(-inf-14.9]\'',-0.589614,-0.622443,0.009141,0.048387,0.071845,0.109659,-0.122449,-0.326898,-0.028584,-0.334655,-0.39604,-0.521556,-0.28392,-0.481448,-0.191452,-0.357319,0.066524,0.936863,0.851522,-0.498379
'\'(-inf-14.9]\'',-0.535224,-0.586102,0.145871,0.069896,0.07074,0.10307,-0.115397,-0.318942,-0.024097,-0.334389,-0.394223,-0.520285,-0.285928,-0.476573,-0.195316,-0.354564,0.037282,0.929404,0.84465,-0.416811
'\'(-inf-14.9]\'',-0.494709,-0.554303,0.161561,0.150557,0.064144,0.080376,-0.102469,-0.310985,-0.011979,-0.333242,-0.391278,-0.519591,-0.285379,-0.473763,-0.186918,-0.350574,0.048346,0.992805,0.916805,-0.228578
'\'(-inf-14.9]\'',-0.445868,-0.515691,0.29605,0.196147,0.061524,0.087697,-0.091891,-0.304734,-0.000716,-0.33232,-0.389158,-0.517916,-0.286478,-0.471485,-0.186419,-0.347888,0.071376,1.048748,0.995832,-0.184657
'\'(-inf-14.9]\'',-0.449198,-0.517962,0.343121,0.342271,0.056916,0.072323,-0.081313,-0.296778,0.009845,-0.332381,-0.388367,-0.517454,-0.2889,-0.468087,-0.200727,-0.344907,0.024611,1.037559,1.030192,-0.234852
'\'(-inf-14.9]\'',-0.370387,-0.476322,0.398037,0.442804,0.052024,0.075984,-0.077787,-0.288821,0.012196,-0.331931,-0.387812,-0.514623,-0.286853,-0.465134,-0.229587,-0.347183,-0.014073,0.951781,0.98896,-0.253676
'\'(-inf-14.9]\'',-0.385373,-0.477836,0.510111,0.48138,0.05032,0.079644,-0.071911,-0.28257,0.013936,-0.331398,-0.386264,-0.513698,-0.28394,-0.460958,-0.245465,-0.353949,-0.039597,0.858543,0.923677,-0.134461
'\'(-inf-14.9]\'',-0.350962,-0.449823,0.582959,0.410072,0.046848,0.071591,-0.066034,-0.27575,0.021017,-0.330886,-0.383588,-0.516991,-0.290592,-0.458222,-0.253026,-0.372029,-0.023293,0.854814,0.930549,0.122791
'\'(-inf-14.9]\'',-0.301567,-0.422567,0.693912,0.616983,0.036653,0.067199,-0.064859,-0.269499,0.021963,-0.32978,-0.380762,-0.518551,-0.290779,-0.455227,-0.269514,-0.35908,-0.055123,0.776495,0.799982,0.386317
'\'(-inf-14.9]\'',-0.200556,-0.386983,0.91918,0.685252,0.031382,0.058414,-0.064859,-0.263247,0.02236,-0.328531,-0.377834,-0.516125,-0.291708,-0.452084,-0.282149,-0.354522,-0.05361,0.81379,0.806854,0.63102
'\'(-inf-14.9]\'',-0.162261,-0.365784,0.774605,0.538661,0.024502,0.034988,-0.061333,-0.256996,0.025748,-0.327629,-0.376067,-0.514392,-0.296546,-0.450264,-0.276409,-0.346305,-0.053819,0.787683,0.755315,0.718862
'\'(-inf-14.9]\'',-0.13673,-0.316573,0.845211,0.443973,0.02144,0.004973,-0.055456,-0.251881,0.033501,-0.326462,-0.374283,-0.514276,-0.300991,-0.449253,-0.253969,-0.346016,0.003884,0.787683,0.727827,0.819253
'\'(-inf-14.9]\'',0.019226,-0.267361,0.84297,0.357935,0.023871,-0.019186,-0.050755,-0.245061,0.036676,-0.324844,-0.372786,-0.512081,-0.302652,-0.447326,-0.235735,-0.34425,0.045096,0.843625,0.762187,0.875723
'\'(-inf-14.9]\'',-0.06125,-0.268118,0.776846,0.309539,0.022608,-0.055057,-0.048405,-0.239378,0.039637,-0.32384,-0.372079,-0.510983,-0.306578,-0.448132,-0.229491,-0.341558,0.037005,0.839896,0.738135,0.919644
'\'(-inf-14.9]\'',-0.021289,-0.222692,0.719689,0.371963,0.022892,-0.10191,-0.043703,-0.231422,0.044032,-0.322775,-0.372264,-0.510925,-0.312582,-0.448572,-0.229165,-0.346121,0.036419,0.746659,0.655672,0.787881
'\'(-inf-14.9]\'',-0.000754,-0.205278,0.699515,0.338764,0.024028,-0.149495,-0.039002,-0.22517,0.050534,-0.322181,-0.372281,-0.509943,-0.309881,-0.448206,-0.210364,-0.345343,0.085891,0.694446,0.607568,0.762784
'\'(-inf-14.9]\'',0.077502,-0.171966,0.749949,0.330581,0.024849,-0.194151,-0.036652,-0.219487,0.054075,-0.320481,-0.371406,-0.509192,-0.30938,-0.447341,-0.212773,-0.350632,0.07789,0.672069,0.600696,0.838077
'\'(-inf-14.9]\'',0.121902,-0.065214,0.75219,0.436491,0.022924,-0.241736,-0.0296,-0.213804,0.058256,-0.318515,-0.370497,-0.50613,-0.312535,-0.446567,-0.215823,-0.346374,0.083044,0.645962,0.586952,1.020035
'\'(14.9-27.8]\'',0.218473,0.031695,0.788054,0.489563,0.023871,-0.27834,-0.024899,-0.206984,0.063018,-0.316589,-0.36937,-0.502086,-0.312624,-0.445987,-0.226312,-0.347057,0.038969,0.582561,0.521669,1.051408
'\'(14.9-27.8]\'',0.311714,0.121791,0.802623,0.406565,0.024975,-0.307623,-0.023723,-0.200165,0.065613,-0.313845,-0.367855,-0.503415,-0.318473,-0.44439,-0.238292,-0.331511,0.00671,0.541536,0.477002,1.264739
'\'(14.9-27.8]\'',0.379424,0.183116,0.944957,0.421528,0.023334,-0.337638,-0.020197,-0.192777,0.070466,-0.310813,-0.364692,-0.504512,-0.323153,-0.442987,-0.222122,-0.331448,0.041535,0.575102,0.511361,1.440423
'\'(14.9-27.8]\'',0.387194,0.233842,0.774605,0.362143,0.025038,-0.353743,-0.014321,-0.185957,0.075106,-0.308458,-0.364036,-0.50197,-0.326182,-0.442252,-0.202836,-0.334281,0.071933,0.597479,0.518233,1.616107
'\'(14.9-27.8]\'',0.350564,0.217943,0.79702,0.309539,0.029773,-0.376438,-0.010795,-0.179705,0.080295,-0.307004,-0.364742,-0.503415,-0.329825,-0.438633,-0.185086,-0.327623,0.104166,0.59002,0.504489,1.735322
'\'(14.9-27.8]\'',0.524836,0.395105,0.760035,0.305564,0.033876,-0.395472,-0.007269,-0.175159,0.082859,-0.305611,-0.364928,-0.502606,-0.332566,-0.438308,-0.177429,-0.324749,0.12695,0.571372,0.477002,1.622382
'\'(14.9-27.8]\'',0.699107,0.520784,0.783571,0.311877,0.03577,-0.442324,-0.002568,-0.170044,0.086277,-0.304853,-0.365802,-0.501104,-0.333959,-0.439665,-0.176111,-0.320913,0.109822,0.548995,0.449514,1.578461
'\'(14.9-27.8]\'',0.619187,0.5011,0.809348,0.4241,0.038452,-0.465019,0.002133,-0.164361,0.092657,-0.30301,-0.365718,-0.499197,-0.336209,-0.440128,-0.154927,-0.312291,0.156107,0.493053,0.377359,1.63493
'\'(14.9-27.8]\'',0.599761,0.462487,0.818314,0.25787,0.042366,-0.487713,0.005659,-0.159246,0.095252,-0.30088,-0.364894,-0.497868,-0.338713,-0.439218,-0.16805,-0.314606,0.156413,0.448299,0.312076,1.446697
'\'(14.9-27.8]\'',0.558136,0.491257,0.865385,0.303694,0.043502,-0.533833,0.009185,-0.154131,0.098426,-0.297951,-0.362959,-0.495442,-0.337281,-0.437671,-0.16053,-0.304421,0.141648,0.437111,0.301768,1.390227
'\'(14.9-27.8]\'',0.558691,0.554097,0.582959,0.120397,0.049373,-0.517728,0.016237,-0.14788,0.105294,-0.294735,-0.360687,-0.493767,-0.339219,-0.436027,-0.144453,-0.295527,0.188672,0.463217,0.377359,1.572186
'\'(14.9-27.8]\'',0.49875,0.401162,0.911335,0.047686,0.053949,-0.527245,0.020938,-0.142197,0.10914,-0.292277,-0.360233,-0.490242,-0.339147,-0.435286,-0.135385,-0.295208,0.194332,0.504242,0.41859,1.754145
'\'(14.9-27.8]\'',0.639722,0.449617,0.727534,-0.06103,0.060861,-0.530905,0.023289,-0.13765,0.112559,-0.290393,-0.360536,-0.486776,-0.339703,-0.434843,-0.131792,-0.287019,0.195764,0.459488,0.367051,1.798066
'\'(14.9-27.8]\'',0.470445,0.381477,0.604253,-0.030169,0.069951,-0.525781,0.029165,-0.131399,0.11732,-0.289266,-0.361478,-0.487527,-0.340883,-0.435831,-0.122406,-0.277566,0.215403,0.433381,0.318947,1.628656
'\'(14.9-27.8]\'',0.383864,0.336808,0.526922,-0.064537,0.078094,-0.593131,0.032691,-0.125716,0.120281,-0.288631,-0.362252,-0.488163,-0.343173,-0.435342,-0.110833,-0.281015,0.220043,0.358791,0.222741,1.409051
'\'(14.9-27.8]\'',0.342239,0.260341,0.623305,-0.004919,0.076706,-0.577026,0.035042,-0.121738,0.12431,-0.287627,-0.362723,-0.486314,-0.346001,-0.433663,-0.113183,-0.287067,0.22176,0.310308,0.140277,1.208269
'\'(14.9-27.8]\'',0.286183,0.129362,0.571751,0.012616,0.086048,-0.585079,0.040918,-0.116055,0.12956,-0.285743,-0.36279,-0.48279,-0.353105,-0.432084,-0.106536,-0.263969,0.224271,0.265554,0.136841,1.271013
'\'(14.9-27.8]\'',0.334469,0.237627,0.568389,-0.039521,0.094601,-0.577758,0.045619,-0.108098,0.135665,-0.281995,-0.358483,-0.481634,-0.350139,-0.429025,-0.115481,-0.259485,0.1989,0.254365,0.160893,1.289836
'\'(14.9-27.8]\'',0.356669,0.245199,0.748828,-0.043496,0.099999,-0.635592,0.046795,-0.103552,0.136337,-0.28011,-0.357557,-0.478746,-0.347334,-0.426658,-0.110041,-0.259182,0.206047,0.217071,0.11279,1.214543
'\'(14.9-27.8]\'',0.303944,0.233085,0.533646,-0.005854,0.109846,-0.661214,0.049145,-0.098437,0.139511,-0.278165,-0.357625,-0.476839,-0.350262,-0.425474,-0.103875,-0.244529,0.235659,0.157399,0.064686,1.107878
'\'(14.9-27.8]\'',0.292844,0.233085,0.543733,-0.051678,0.114454,-0.697818,0.052671,-0.095027,0.142899,-0.276198,-0.357002,-0.475799,-0.350531,-0.423856,-0.106543,-0.247607,0.230492,0.038055,-0.0487,1.045133
'\'(14.9-27.8]\'',0.301724,0.222485,0.455195,-0.06103,0.122313,-0.675124,0.055022,-0.090481,0.144975,-0.27415,-0.355908,-0.473604,-0.35334,-0.421932,-0.094226,-0.240422,0.241531,-0.032806,-0.138035,0.806705
'\'(14.9-27.8]\'',0.294509,0.262612,0.452953,-0.01053,0.131308,-0.68098,0.062074,-0.085366,0.151233,-0.272327,-0.355151,-0.471582,-0.355248,-0.419568,-0.076162,-0.235301,0.259912,-0.029076,-0.148343,0.850626
'\'(14.9-27.8]\'',0.270643,0.255798,0.457436,-0.051678,0.139325,-0.684641,0.066775,-0.081956,0.155018,-0.270074,-0.352896,-0.469386,-0.355082,-0.417131,-0.064814,-0.223961,0.265096,0.067891,-0.028085,1.076505
'\'(14.9-27.8]\'',0.260653,0.24217,0.282601,-0.135846,0.14993,-0.583614,0.070301,-0.077978,0.155475,-0.268948,-0.352156,-0.465573,-0.355516,-0.411721,-0.050621,-0.217068,0.275523,0.067891,-0.017777,1.145524
'\'(14.9-27.8]\'',0.311714,0.205072,0.307257,0.033424,0.158673,-0.604845,0.070301,-0.074568,0.156147,-0.268538,-0.352089,-0.466035,-0.350842,-0.411263,-0.042997,-0.224708,0.298702,0.064161,-0.031521,1.076505
'\'(14.9-27.8]\'',0.343904,0.224757,0.677101,-0.016609,0.164385,-0.629735,0.075002,-0.070021,0.160787,-0.267575,-0.351954,-0.465978,-0.349927,-0.411199,-0.041413,-0.206491,0.306656,0.123833,0.006275,1.089054
'\'(14.9-27.8]\'',0.308939,0.240656,0.485455,-0.076227,0.178999,-0.655358,0.079703,-0.066043,0.166311,-0.266797,-0.351214,-0.464302,-0.341631,-0.409862,-0.016672,-0.187574,0.33776,0.273013,0.133406,1.352581
'\'(14.9-27.8]\'',0.234568,0.214914,0.358811,-0.037651,0.189856,-0.669999,0.080878,-0.059792,0.168692,-0.266592,-0.351012,-0.460778,-0.334724,-0.407826,-0.001856,-0.189131,0.349394,0.422193,0.267408,1.521991
'\'(14.9-27.8]\'',0.187393,0.177059,0.394675,0.032489,0.200366,-0.691961,0.084404,-0.055814,0.171623,-0.266142,-0.349413,-0.460662,-0.329351,-0.405456,0.00985,-0.193349,0.369777,0.463217,0.301768,1.371404
'\'(14.9-27.8]\'',0.131337,0.089235,0.380105,-0.056354,0.210371,-0.686837,0.089105,-0.051267,0.176537,-0.265752,-0.351315,-0.458063,-0.324079,-0.402666,0.0268,-0.181936,0.39734,0.455758,0.312076,1.170622
'\'(14.9-27.8]\'',0.179623,0.075607,0.231047,-0.046067,0.222018,-0.703674,0.094982,-0.046721,0.182916,-0.264626,-0.349851,-0.456098,-0.314914,-0.398817,0.030009,-0.180566,0.379116,0.507971,0.363615,1.289836
'\'(14.9-27.8]\'',0.139662,0.080907,0.514594,-0.073889,0.231329,-0.70221,0.102034,-0.041606,0.187587,-0.264646,-0.350271,-0.455925,-0.30802,-0.395383,0.046904,-0.16641,0.42702,0.493053,0.342999,1.120427
'\'(14.9-27.8]\'',0.137442,0.061222,0.232168,-0.101945,0.242186,-0.686837,0.10556,-0.036491,0.189845,-0.26438,-0.350204,-0.455001,-0.304467,-0.391091,0.054503,-0.156931,0.405171,0.593749,0.425462,1.095329
'\'(14.9-27.8]\'',0.253438,0.097563,0.194063,-0.087216,0.248814,-0.712459,0.106735,-0.030808,0.193295,-0.264728,-0.350507,-0.453961,-0.29632,-0.387638,0.07538,-0.149986,0.443315,0.679528,0.501053,1.25219
'\'(14.9-27.8]\'',0.093042,0.005954,0.060695,-0.112466,0.261786,-0.718316,0.111436,-0.025693,0.197171,-0.264585,-0.350019,-0.451419,-0.287857,-0.384038,0.092819,-0.147315,0.446659,0.720552,0.542285,1.057682
'\'(14.9-27.8]\'',-0.005749,-0.072028,0.040522,-0.13491,0.271412,-0.730029,0.114962,-0.020578,0.198484,-0.264626,-0.350154,-0.448299,-0.281166,-0.378206,0.118671,-0.144629,0.477125,0.638503,0.466694,0.863175
'\'(14.9-27.8]\'',-0.05681,-0.09247,0.060695,-0.086748,0.281891,-0.743938,0.119663,-0.0166,0.202635,-0.264482,-0.349144,-0.449628,-0.268112,-0.373156,0.123711,-0.139566,0.468823,0.638503,0.459822,0.794156
'\'(14.9-27.8]\'',-0.085115,-0.17878,0.097679,-0.066875,0.287856,-0.77615,0.124364,-0.012054,0.206267,-0.265302,-0.349565,-0.451534,-0.252787,-0.367817,0.120466,-0.154407,0.477886,0.563913,0.380795,0.354945
'\'(14.9-27.8]\'',-0.117305,-0.093984,0.186218,-0.055185,0.294611,-0.773221,0.12789,-0.008075,0.210052,-0.265445,-0.349363,-0.448761,-0.244217,-0.363577,0.124307,-0.143375,0.47577,0.511701,0.329255,0.147889
'\'(14.9-27.8]\'',-0.014074,-0.037201,0.291567,-0.00866,0.299566,-0.786399,0.134942,-0.005234,0.215455,-0.264913,-0.348,-0.44541,-0.239401,-0.360052,0.119651,-0.142691,0.456738,0.478135,0.294896,0.016125
'\'(14.9-27.8]\'',0.043646,-0.11064,0.248979,0.085093,0.298998,-0.803969,0.138468,-0.001824,0.21863,-0.265732,-0.343793,-0.445121,-0.228607,-0.355602,0.132453,-0.12832,0.470718,0.336414,0.157457,-0.228578
'\'(14.9-27.8]\'',-0.12896,-0.171966,0.273635,0.066389,0.306699,-0.817146,0.141994,0.002154,0.220644,-0.265957,-0.339637,-0.444659,-0.223135,-0.351389,0.141077,-0.11618,0.486839,0.205882,0.054378,-0.510928
'\'(14.9-27.8]\'',-0.103985,-0.160609,0.510111,0.090471,0.309571,-0.825931,0.144345,0.006132,0.223239,-0.265691,-0.336524,-0.444024,-0.213478,-0.346039,0.129999,-0.122833,0.465436,0.246906,0.102482,-0.347792
'\'(14.9-27.8]\'',-0.059585,-0.171966,0.363294,0.01963,0.317903,-0.838376,0.14787,0.011816,0.227695,-0.265711,-0.332889,-0.444255,-0.208244,-0.343336,0.164748,-0.112549,0.523491,0.306578,0.154021,-0.14701
'\'(14.9-27.8]\'',-0.10676,-0.152281,0.208632,0.046517,0.325068,-0.845697,0.150221,0.016362,0.22913,-0.266408,-0.330685,-0.443793,-0.204223,-0.340296,0.175185,-0.111195,0.531161,0.213341,0.064686,-0.366615
'\'(14.9-27.8]\'',-0.12563,-0.183322,0.302774,0.090938,0.329897,-0.85375,0.154922,0.019772,0.234502,-0.26737,-0.328783,-0.443619,-0.203962,-0.339024,0.170718,-0.115062,0.495507,0.138751,0.002839,-0.441909
'\'(14.9-27.8]\'',-0.088445,-0.157581,0.272514,0.116656,0.334284,-0.869123,0.157273,0.02375,0.234441,-0.268026,-0.32769,-0.442175,-0.196081,-0.337177,0.177506,-0.099657,0.508492,0.101456,-0.021213,-0.536025
'\'(14.9-27.8]\'',-0.092885,-0.187865,0.340879,0.060544,0.339334,-0.869855,0.159623,0.02716,0.23844,-0.269378,-0.326074,-0.438304,-0.192998,-0.336134,0.18664,-0.097112,0.520415,0.026866,-0.086496,-0.548574
'\'(14.9-27.8]\'',-0.070685,-0.19165,0.310619,0.102628,0.339082,-0.873515,0.169026,0.032275,0.243079,-0.270197,-0.322978,-0.440673,-0.184675,-0.332653,0.17211,-0.098361,0.475914,0.023137,-0.093368,-0.561123
'\'(14.9-27.8]\'',-0.106205,-0.197707,0.17501,0.117825,0.352338,-0.853017,0.172552,0.035116,0.246376,-0.271221,-0.320639,-0.444139,-0.181569,-0.330795,0.210952,-0.082255,0.534649,0.090268,-0.038393,-0.247401
'\'(14.9-27.8]\'',-0.024619,-0.100041,0.167165,0.16061,0.360386,-0.842768,0.178428,0.037958,0.252694,-0.270381,-0.316416,-0.441366,-0.177703,-0.327391,0.207006,-0.078205,0.510646,0.22453,0.099046,-0.015247
'\'(14.9-27.8]\'',-0.024064,-0.08717,0.278118,0.033658,0.365625,-0.832519,0.18548,0.041368,0.258982,-0.269931,-0.314598,-0.439691,-0.17187,-0.326358,0.234209,-0.069614,0.544737,0.280472,0.154021,0.19181
'\'(14.9-27.8]\'',-0.052925,-0.078085,0.268031,-0.035313,0.376293,-0.829591,0.189006,0.044778,0.262615,-0.271631,-0.312596,-0.439922,-0.166396,-0.325058,0.255123,-0.059879,0.552236,0.325226,0.191817,0.323573
'\'(14.9-27.8]\'',-0.079565,-0.069757,0.058453,-0.046067,0.384941,-0.820074,0.192532,0.048187,0.262584,-0.271897,-0.310425,-0.437958,-0.160291,-0.323195,0.27579,-0.068674,0.580174,0.358791,0.226176,0.411415
'\'(14.9-27.8]\'',-0.111755,-0.095498,0.248979,-0.070382,0.3928,-0.821538,0.196058,0.051597,0.267041,-0.272471,-0.307969,-0.435993,-0.156011,-0.325485,0.275834,-0.061603,0.559222,0.336414,0.208997,0.304749
'\'(14.9-27.8]\'',-0.128405,-0.149253,0.086472,-0.094697,0.39845,-0.823002,0.198408,0.054439,0.269055,-0.274683,-0.306808,-0.435358,-0.152638,-0.320673,0.289968,-0.061504,0.546194,0.265554,0.150585,0.273377
'\'(14.9-27.8]\'',-0.154491,-0.187865,0.116732,-0.043496,0.404826,-0.833984,0.204285,0.057849,0.275038,-0.275789,-0.305226,-0.434722,-0.139331,-0.316854,0.30753,-0.04903,0.586586,0.340144,0.208997,0.342396
'\'(14.9-27.8]\'',-0.12785,-0.210578,0.25122,-0.06103,0.41319,-0.828859,0.210161,0.061259,0.281448,-0.277939,-0.301962,-0.434433,-0.130215,-0.31213,0.306993,-0.037048,0.564971,0.239447,0.11279,0.19181
'\'(14.9-27.8]\'',-0.188346,-0.239348,0.108887,-0.073188,0.42209,-0.803236,0.216038,0.065237,0.285233,-0.27839,-0.298209,-0.431834,-0.122576,-0.308269,0.332219,-0.038924,0.611588,0.131292,0.016583,-0.059168
'\'(14.9-27.8]\'',-0.207771,-0.233291,0.344242,0.006771,0.428276,-0.80104,0.220739,0.066373,0.287705,-0.278841,-0.294255,-0.427212,-0.11441,-0.301601,0.34998,-0.036191,0.620111,0.168587,0.050942,0.016125
'\'(14.9-27.8]\'',-0.186681,-0.23632,0.122336,-0.06103,0.435031,-0.778346,0.224265,0.069783,0.290483,-0.278861,-0.291563,-0.428656,-0.109741,-0.297677,0.355025,-0.023471,0.610321,0.250636,0.119662,0.216907
'\'(14.9-27.8]\'',-0.198891,-0.267361,0.276997,-0.146367,0.445036,-0.75858,0.227791,0.072057,0.29494,-0.279353,-0.289594,-0.430158,-0.101133,-0.294753,0.388778,-0.015826,0.63322,0.209612,0.068122,0.154163
'\'(14.9-27.8]\'',-0.215541,-0.275689,0.238892,-0.152679,0.455041,-0.75858,0.228966,0.076603,0.297198,-0.280643,-0.287087,-0.428772,-0.093214,-0.287488,0.407068,-0.007454,0.661888,0.299119,0.150585,0.198084
'\'(14.9-27.8]\'',-0.178911,-0.270389,0.089834,-0.117142,0.464415,-0.739546,0.230141,0.079445,0.299305,-0.282404,-0.284428,-0.426923,-0.083049,-0.280266,0.409478,-0.024511,0.621055,0.36625,0.205561,0.24828
'\'(14.9-27.8]\'',-0.209436,-0.311273,-0.054741,-0.132105,0.473,-0.722708,0.230141,0.082854,0.298328,-0.282425,-0.282375,-0.426056,-0.07626,-0.273803,0.42594,-0.025316,0.651805,0.310308,0.157457,0.141614
'\'(14.9-27.8]\'',-0.229416,-0.292345,0.073023,-0.124156,0.48108,-0.71978,0.233667,0.084559,0.301075,-0.281954,-0.279548,-0.424439,-0.071282,-0.267163,0.439541,-0.01245,0.648274,0.246906,0.09561,-0.03407
'\'(14.9-27.8]\'',-0.210546,-0.290831,-0.017757,-0.148705,0.490485,-0.700746,0.236018,0.086264,0.302357,-0.282077,-0.276536,-0.422532,-0.067615,-0.263281,0.464319,0.001931,0.6859,0.14621,0.002839,-0.178382
'\'(14.9-27.8]\'',-0.274372,-0.293102,0.011382,-0.102179,0.489601,-0.714656,0.240719,0.088538,0.304066,-0.28007,-0.270899,-0.421839,-0.060328,-0.259953,0.494516,0.002637,0.721907,0.176046,0.026891,-0.140736
'\'(14.9-27.8]\'',-0.235521,-0.293859,-0.008791,-0.172084,0.505035,-0.696354,0.24542,0.090811,0.309255,-0.28179,-0.268257,-0.421203,-0.051091,-0.253385,0.522281,0.009895,0.753269,0.14994,-0.014341,-0.197206
'\'(14.9-27.8]\'',-0.304342,-0.324144,-0.161211,-0.196633,0.516051,-0.688301,0.248946,0.094221,0.312064,-0.282056,-0.265027,-0.419875,-0.046217,-0.25003,0.549406,0.008803,0.818178,0.093997,-0.059008,-0.285048
'\'(14.9-27.8]\'',-0.378158,-0.396826,-0.092846,-0.175124,0.525582,-0.700746,0.251297,0.098767,0.312186,-0.280971,-0.261241,-0.415888,-0.038701,-0.247691,0.573884,0.005761,0.826651,0.045514,-0.110548,-0.391713
'\'(14.9-27.8]\'',-0.331537,-0.361999,-0.193713,-0.181436,0.535777,-0.68098,0.252472,0.103882,0.311728,-0.280684,-0.258195,-0.410977,-0.032161,-0.246244,0.587097,0.013694,0.813245,0.004489,-0.144907,-0.423085
'\'(14.9-27.8]\'',-0.369277,-0.353671,-0.202678,-0.144262,0.543888,-0.668535,0.254823,0.105587,0.312796,-0.280336,-0.254274,-0.412075,-0.019112,-0.244063,0.600879,0.017446,0.831728,-0.051453,-0.189575,-0.630142
'\'(14.9-27.8]\'',-0.382598,-0.382441,-0.215007,-0.154549,0.550548,-0.666339,0.254823,0.109565,0.311667,-0.279557,-0.248772,-0.413693,-0.010614,-0.236578,0.606438,0.016359,0.827012,-0.029076,-0.168959,-0.579946
'\'(-inf-14.9]\'',-0.403133,-0.411968,-0.154487,-0.173253,0.555219,-0.676588,0.254823,0.112975,0.312002,-0.279742,-0.244498,-0.412191,-0.006004,-0.228139,0.607748,0.022332,0.830063,-0.010429,-0.144907,-0.517202
'\'(-inf-14.9]\'',-0.567414,-0.438466,-0.215007,-0.191957,0.564088,-0.705139,0.257173,0.11809,0.314689,-0.279824,-0.24014,-0.4104,-0.008275,-0.22449,0.618552,0.040727,0.857202,-0.021617,-0.141471,-0.498379
'\'(-inf-14.9]\'',-0.559644,-0.471779,-0.179143,-0.191022,0.576713,-0.729297,0.261875,0.123205,0.317649,-0.279291,-0.236068,-0.409764,0.006164,-0.224048,0.639011,0.043789,0.872787,-0.021617,-0.151779,-0.517202
'\'(-inf-14.9]\'',-0.491379,-0.509634,-0.034568,-0.065706,0.583972,-0.743938,0.264225,0.126614,0.315818,-0.279865,-0.232753,-0.408089,0.024848,-0.223295,0.620291,0.055348,0.82827,-0.081289,-0.210191,-0.65524
'\'(-inf-14.9]\'',-0.511359,-0.485407,-0.117502,-0.089086,0.588233,-0.778346,0.268926,0.130593,0.32116,-0.28011,-0.229438,-0.405604,0.03272,-0.220764,0.607841,0.046694,0.790257,-0.07383,-0.203319,-0.667789
'\'(-inf-14.9]\'',-0.484164,-0.487678,-0.164573,-0.184476,0.598806,-0.787863,0.271277,0.135139,0.324151,-0.279947,-0.225248,-0.40416,0.040379,-0.217239,0.672131,0.037502,0.908611,-0.085018,-0.206755,-0.749356
'\'(-inf-14.9]\'',-0.449753,-0.413482,-0.139917,-0.224689,0.605056,-0.823002,0.272452,0.139686,0.3229,-0.279127,-0.218686,-0.402023,0.050791,-0.215542,0.669196,0.05065,0.880232,-0.129772,-0.223935,-1.056804
'\'(-inf-14.9]\'',-0.508584,-0.457394,-0.225093,-0.193827,0.611494,-0.854482,0.277154,0.143664,0.327661,-0.277878,-0.211921,-0.399712,0.074252,-0.2113,0.690984,0.070853,0.895035,-0.140961,-0.193011,-0.956413
'\'(-inf-14.9]\'',-0.504144,-0.444523,-0.125348,-0.168577,0.620174,-0.889621,0.279504,0.146505,0.327753,-0.276055,-0.205409,-0.396419,0.087814,-0.20081,0.688042,0.078263,0.865402,-0.126043,-0.138035,-0.617593
'\'(-inf-14.9]\'',-0.521349,-0.499035,-0.340529,-0.168577,0.631915,-0.905727,0.28303,0.149915,0.329951,-0.276034,-0.200529,-0.391739,0.084173,-0.19482,0.700995,0.091578,0.86694,-0.196903,-0.175831,-0.636416
'\'(-inf-14.9]\'',-0.559644,-0.566417,-0.130951,-0.120883,0.635198,-0.976006,0.286556,0.153325,0.333003,-0.2754,-0.195919,-0.390872,0.082718,-0.191103,0.714282,0.092252,0.909788,-0.189444,-0.155215,-0.561123
'\'(-inf-14.9]\'',-0.525789,-0.500549,-0.183626,-0.236379,0.648422,-1.023591,0.286556,0.157872,0.331782,-0.275686,-0.192082,-0.391739,0.080416,-0.189687,0.732991,0.108332,0.928284,-0.129772,-0.120856,-0.467006
'\'(-inf-14.9]\'',-0.569634,-0.566417,-0.229576,-0.230534,0.652083,-1.042624,0.287731,0.161281,0.33343,-0.275707,-0.190938,-0.389081,0.091036,-0.186174,0.739893,0.115339,0.919191,-0.047724,-0.072752,-0.354067
'\'(-inf-14.9]\'',-0.565194,-0.578531,-0.293458,-0.203647,0.663509,-1.087281,0.30066,0.165828,0.343961,-0.274683,-0.186092,-0.386655,0.094098,-0.183049,0.747136,0.125483,0.913451,-0.040265,-0.089932,-0.341518
'\'(-inf-14.9]\'',-0.551319,-0.563388,-0.359582,-0.235911,0.670358,-1.131205,0.301835,0.169238,0.345396,-0.274232,-0.181936,-0.383535,0.088185,-0.177957,0.767125,0.13457,0.951574,0.067891,-0.007469,-0.115638
'\'(-inf-14.9]\'',-0.485274,-0.492221,-0.377514,-0.271448,0.678911,-1.158292,0.301835,0.173216,0.346067,-0.275051,-0.178251,-0.381571,0.097334,-0.174543,0.764978,0.139597,0.910668,0.179776,0.09561,0.097693
'\'(-inf-14.9]\'',-0.546879,-0.552789,-0.366306,-0.252745,0.689548,-1.159756,0.310062,0.178331,0.351897,-0.275195,-0.17364,-0.378798,0.107972,-0.170537,0.784205,0.149704,0.894695,0.164858,0.071558,-0.115638
'\'(-inf-14.9]\'',-0.579069,-0.572474,-0.320356,-0.286645,0.694313,-1.15756,0.314763,0.182877,0.355896,-0.275174,-0.170729,-0.377296,0.120927,-0.161835,0.798672,0.163191,0.949874,0.243177,0.140277,-0.071717
'\'(-inf-14.9]\'',-0.582399,-0.570202,-0.308028,-0.29249,0.700626,-1.172934,0.32299,0.187424,0.363802,-0.275727,-0.16802,-0.374176,0.128388,-0.151196,0.784968,0.169384,0.915605,0.239447,0.157457,-0.178382
'\'(-inf-14.9]\'',-0.588504,-0.558846,-0.294579,-0.288282,0.71344,-1.169273,0.326516,0.190834,0.367526,-0.274334,-0.163998,-0.369612,0.132242,-0.13931,0.827178,0.168271,0.999669,0.299119,0.219305,-0.046619
'\'(-inf-14.9]\'',-0.621805,-0.590644,-0.375272,-0.328729,0.722562,-1.159756,0.330042,0.19538,0.36951,-0.272819,-0.160785,-0.359155,0.15954,-0.131801,0.845013,0.185604,0.997345,0.228259,0.140277,-0.234852
'\'(-inf-14.9]\'',-0.62347,-0.592158,-0.555711,-0.343926,0.732535,-1.151703,0.334743,0.201063,0.374668,-0.270463,-0.156157,-0.341996,0.160653,-0.110374,0.871867,0.212663,1.044612,0.299119,0.154021,-0.002698
'\'(-inf-14.9]\'',-0.620695,-0.561117,-0.404411,-0.297634,0.739731,-1.150239,0.34062,0.205041,0.380712,-0.270484,-0.151395,-0.34812,0.164271,-0.098159,0.869306,0.203435,0.986357,0.384898,0.202125,0.141614
'\'(-inf-14.9]\'',-0.665095,-0.630771,-0.221731,-0.272617,0.743203,-1.148043,0.348847,0.210156,0.387733,-0.273249,-0.149157,-0.361928,0.180183,-0.092426,0.880976,0.225074,1.019584,0.347603,0.188381,-0.121912
'\'(-inf-14.9]\'',-0.658435,-0.6179,-0.368548,-0.36146,0.758448,-1.148775,0.3606,0.216976,0.397317,-0.273474,-0.143975,-0.362448,0.192423,-0.077521,0.894244,0.242491,1.003587,0.347603,0.215869,-0.360341
'\'(-inf-14.9]\'',-0.68674,-0.653484,-0.29682,-0.37619,0.767254,-1.11876,0.359425,0.220954,0.395455,-0.271815,-0.134535,-0.361581,0.202854,-0.06448,0.915817,0.216614,1.040541,0.332685,0.226176,-0.636416
'\'(-inf-14.9]\'',-0.65122,-0.620171,-0.222852,-0.326391,0.77426,-1.10119,0.36295,0.225501,0.397317,-0.274007,-0.136571,-0.360426,0.223693,-0.051025,0.925765,0.226673,1.048529,0.463217,0.397975,-0.510928
'\'(-inf-14.9]\'',-0.697285,-0.632285,-0.399928,-0.285476,0.772903,-1.109243,0.374703,0.231752,0.404918,-0.274478,-0.133559,-0.359617,0.237062,-0.039689,0.928249,0.23586,1.051869,0.343873,0.253664,-0.887394
'\'(-inf-14.9]\'',-0.64123,-0.578531,-0.320356,-0.266772,0.778142,-1.090941,0.38058,0.236867,0.410565,-0.274294,-0.13058,-0.358346,0.244059,-0.03116,0.92216,0.225059,1.032846,0.336414,0.208997,-0.92504
'\'(-inf-14.9]\'',-0.612925,-0.570202,-0.243025,-0.183774,0.778332,-1.090209,0.38058,0.243687,0.410412,-0.274969,-0.125835,-0.358808,0.247781,-0.023979,0.913045,0.23134,1.012544,0.299119,0.178073,-1.03798
'\'(-inf-14.9]\'',-0.670645,-0.6179,-0.407773,-0.242457,0.781614,-1.05507,0.391158,0.248801,0.420119,-0.275072,-0.119811,-0.358577,0.249269,-0.017768,0.927542,0.250351,1.054618,0.325226,0.208997,-1.069353
'\'(-inf-14.9]\'',-0.64456,-0.632285,-0.43243,-0.238717,0.782056,-1.036036,0.394684,0.253348,0.423201,-0.275277,-0.117102,-0.35771,0.255475,-0.018567,0.914858,0.249389,1.007305,0.299119,0.205561,-1.100725
'\'(-inf-14.9]\'',-0.65677,-0.658026,-0.358461,-0.083241,0.788495,-1.044821,0.398209,0.256758,0.426376,-0.276567,-0.115184,-0.354822,0.25861,-0.013026,0.915613,0.241608,1.020808,0.261824,0.184945,-1.113274
'\'(-inf-14.9]\'',-0.649,-0.620928,-0.319235,-0.028299,0.793545,-1.054338,0.402911,0.261873,0.429856,-0.277345,-0.107629,-0.3502,0.264741,-0.009226,0.903966,0.238933,1.044068,0.172317,0.09561,-1.345428
'\'(-inf-14.9]\'',-0.625135,-0.595187,-0.172419,-0.056354,0.793134,-1.025055,0.414664,0.270966,0.440875,-0.275686,-0.099097,-0.349969,0.276462,-0.006857,0.88713,0.262673,1.007479,0.14994,0.064686,-1.132097
'\'(-inf-14.9]\'',-0.559089,-0.566417,-0.3876,0.089769,0.795817,-1.00236,0.419365,0.277217,0.444416,-0.274765,-0.092585,-0.351586,0.276157,0.000077,0.864713,0.261346,0.9798,0.131292,0.044071,-0.862296
'\'(-inf-14.9]\'',-0.542439,-0.580045,-0.056983,0.164351,0.794649,-0.983327,0.42054,0.283468,0.444629,-0.273187,-0.08286,-0.349738,0.273944,0.007894,0.856327,0.246677,0.979048,0.086538,0.033763,-0.881119
'\'(-inf-14.9]\'',-0.554649,-0.567931,-0.134313,0.209006,0.78537,-0.984791,0.424066,0.289151,0.448658,-0.27159,-0.07204,-0.348236,0.269629,0.015602,0.84448,0.270663,0.993487,0.168587,0.11279,-0.404262
'\'(-inf-14.9]\'',-0.552984,-0.634556,-0.072673,0.198485,0.783855,-0.984791,0.434644,0.294266,0.454702,-0.271221,-0.07236,-0.345809,0.26332,0.022741,0.8268,0.277765,0.993742,0.202153,0.11279,0.122791
'\'(-inf-14.9]\'',-0.536334,-0.569445,-0.095088,0.21111,0.780383,-0.985523,0.439345,0.300518,0.458762,-0.269644,-0.065124,-0.34396,0.24844,0.025175,0.80905,0.270998,0.995382,0.161128,0.07843,0.204358
'\'(-inf-14.9]\'',-0.469178,-0.575502,0.086472,0.214851,0.776343,-0.979666,0.435819,0.302791,0.457999,-0.267043,-0.060093,-0.339974,0.238327,0.026492,0.788846,0.263807,0.971663,0.142481,0.07843,0.304749
'\'(-inf-14.9]\'',-0.353737,-0.458151,0.086472,0.214851,0.771609,-0.994308,0.435819,0.311316,0.457724,-0.264728,-0.054422,-0.336277,0.228214,0.026965,0.785952,0.27719,0.982227,0.101456,0.037199,0.210633
'\'(-inf-14.9]\'',-0.304342,-0.486921,0.269152,0.387861,0.763466,-1.00236,0.444046,0.31643,0.449879,-0.253361,-0.035677,-0.321949,0.232361,0.03298,0.768109,0.240574,0.958874,0.157399,0.099046,0.423964
'\'(-inf-14.9]\'',-0.231081,-0.418782,0.472006,0.601786,0.75365,-1.030179,0.43817,0.322682,0.457968,-0.261554,-0.037579,-0.328882,0.214233,0.033709,0.758124,0.344983,0.981177,0.105186,0.057814,0.68749
'\'(-inf-14.9]\'',-0.1001,-0.269632,0.511232,0.446311,0.743929,-1.036036,0.436994,0.328933,0.456412,-0.260468,-0.030225,-0.326397,0.20116,0.046175,0.738912,0.300047,0.974757,0.082809,0.023455,0.988663
'\'(-inf-14.9]\'',-0.030169,-0.25449,0.770122,0.302759,0.738848,-1.056534,0.435819,0.33348,0.454031,-0.257969,-0.021307,-0.319869,0.186193,0.058264,0.737646,0.28055,0.999282,0.008219,0.105918,1.434148
'\'(-inf-14.9]\'',0.044201,-0.196193,0.556061,0.263948,0.734934,-1.027983,0.439345,0.342573,0.456106,-0.256433,-0.017874,-0.318136,0.175176,0.057761,0.760282,0.284903,1.043987,-0.07383,0.044071,1.459246
'\'(14.9-27.8]\'',0.060851,-0.187865,0.52356,0.219527,0.731052,-1.069711,0.442871,0.345983,0.459983,-0.256453,-0.012944,-0.317674,0.180257,0.063451,0.760075,0.293965,1.015199,-0.088748,0.050942,1.371404
'\'(14.9-27.8]\'',0.122457,-0.100041,0.507869,0.296212,0.73061,-1.116564,0.448747,0.351666,0.46624,-0.2559,-0.010959,-0.315132,0.174627,0.066362,0.784823,0.289836,1.052494,0.023137,0.126534,1.609833
'\'(14.9-27.8]\'',0.196273,-0.003889,0.854177,0.360974,0.727233,-1.129009,0.45815,0.359054,0.475916,-0.257211,-0.010942,-0.312589,0.159896,0.072003,0.800523,0.305869,1.04782,0.004489,0.099046,1.553363
'\'(14.9-27.8]\'',0.260098,0.084692,0.531405,0.266286,0.727769,-1.150971,0.4605,0.365874,0.477443,-0.25672,-0.006533,-0.309585,0.148074,0.076769,0.814739,0.294472,1.062802,0.00076,0.119662,1.521991
'\'(14.9-27.8]\'',0.291179,0.135418,0.609856,0.164351,0.729063,-1.178058,0.461676,0.369852,0.480342,-0.2559,-0.002326,-0.306466,0.139629,0.091484,0.842082,0.302101,1.10842,-0.043994,0.071558,1.377679
'\'(14.9-27.8]\'',0.259543,0.092264,0.400279,0.158739,0.726223,-1.188307,0.466377,0.380081,0.48547,-0.254712,0.004859,-0.303404,0.130305,0.102565,0.840971,0.321619,1.110902,-0.081289,0.054378,1.214543
'\'(14.9-27.8]\'',0.215698,0.083935,0.465281,0.194277,0.726191,-1.190503,0.472253,0.384628,0.490049,-0.25717,0.01196,-0.303115,0.125109,0.119288,0.837526,0.330623,1.08222,-0.140961,-0.055572,0.963566
'\'(14.9-27.8]\'',0.262318,0.089235,0.466402,0.268624,0.723698,-1.202949,0.475779,0.389743,0.494261,-0.255327,0.016015,-0.302768,0.117458,0.139126,0.840738,0.305435,1.087787,-0.22301,-0.11742,0.712588
'\'(14.9-27.8]\'',0.301724,0.144504,0.450712,0.259272,0.727296,-1.19636,0.48048,0.399404,0.498535,-0.253709,0.023536,-0.301901,0.113197,0.163917,0.831911,0.315239,1.080525,-0.159608,-0.004033,0.756509
'\'(14.9-27.8]\'',0.312824,0.212643,0.442867,0.18773,0.727264,-1.192699,0.484006,0.40736,0.500855,-0.252562,0.032118,-0.298088,0.11029,0.182914,0.850265,0.317684,1.114789,-0.163338,-0.041829,1.08278
'\'(14.9-27.8]\'',0.42882,0.349679,0.537009,0.290835,0.722498,-1.202216,0.487532,0.412475,0.503113,-0.250391,0.035702,-0.291907,0.107045,0.200984,0.831608,0.334605,1.072745,-0.200633,-0.10024,1.132975
'\'(14.9-27.8]\'',0.370544,0.225514,0.529163,0.200823,0.725907,-1.211001,0.496935,0.415885,0.510134,-0.248936,0.041221,-0.291849,0.098868,0.215601,0.859228,0.345114,1.128595,-0.215551,-0.1346,1.145524
'\'(14.9-27.8]\'',0.367769,0.304253,0.561665,0.275638,0.721741,-1.207341,0.508688,0.41759,0.520054,-0.246704,0.047296,-0.290867,0.087171,0.23409,0.863433,0.324415,1.146343,-0.2976,-0.234242,1.038859
'\'(14.9-27.8]\'',0.367769,0.254284,0.512352,0.352324,0.715239,-1.233696,0.512214,0.419863,0.526128,-0.246479,0.050695,-0.288382,0.082571,0.243189,0.854184,0.342606,1.146539,-0.319977,-0.272038,0.988663
'\'(14.9-27.8]\'',0.471555,0.35195,0.617702,0.393706,0.713251,-1.257854,0.503986,0.423273,0.522099,-0.244287,0.056938,-0.285898,0.079393,0.255865,0.833107,0.347183,1.110358,-0.375919,-0.306398,1.076505
'\'(14.9-27.8]\'',0.454905,0.353464,0.584079,0.336426,0.714008,-1.239552,0.500461,0.430093,0.519383,-0.240436,0.067,-0.28353,0.065381,0.269715,0.831956,0.350141,1.097725,-0.569853,-0.467888,0.831802
'\'(14.9-27.8]\'',0.584776,0.482929,0.711844,0.325905,0.713661,-1.233696,0.502811,0.435208,0.521947,-0.237937,0.073209,-0.282778,0.057113,0.280444,0.836382,0.371316,1.10593,-0.66309,-0.533171,0.706314
'\'(14.9-27.8]\'',0.629732,0.38602,0.567268,0.277976,0.713629,-1.227107,0.509863,0.442596,0.528906,-0.236606,0.081118,-0.281276,0.062025,0.295497,0.853677,0.384568,1.150129,-0.469156,-0.385425,1.245915
'\'(14.9-27.8]\'',0.587551,0.403433,0.577355,0.225138,0.712651,-1.232231,0.519265,0.44771,0.536934,-0.234783,0.090861,-0.27937,0.047504,0.320014,0.846512,0.402257,1.113782,-0.323706,-0.251422,1.528265
'\'(14.9-27.8]\'',0.548146,0.417818,0.745466,0.203161,0.715807,-1.234428,0.526317,0.456235,0.544382,-0.234619,0.08625,-0.279254,0.035401,0.327894,0.868296,0.398751,1.150524,-0.383378,-0.327013,1.427874
'\'(14.9-27.8]\'',0.528721,0.376178,0.541491,0.140036,0.721709,-1.214662,0.523967,0.459645,0.544687,-0.234496,0.084618,-0.277117,0.019422,0.315088,0.872848,0.395009,1.12098,-0.390837,-0.347629,1.440423
'\'(14.9-27.8]\'',0.511516,0.411761,0.447349,0.051193,0.723003,-1.204413,0.525142,0.465328,0.547709,-0.23423,0.085543,-0.273766,0.012989,0.3089,0.895854,0.401426,1.151646,-0.409484,-0.371681,1.452972
'\'(14.9-27.8]\'',0.481545,0.354979,0.38683,0.028982,0.726412,-1.197824,0.531018,0.474421,0.55299,-0.232776,0.085257,-0.268682,0.015296,0.312855,0.897582,0.408058,1.157501,-0.420673,-0.392297,1.446697
'\'(14.9-27.8]\'',0.480435,0.339837,0.290446,0.0381,0.731683,-1.186843,0.540421,0.478968,0.562269,-0.232817,0.086637,-0.270415,0.007216,0.323277,0.903267,0.414804,1.172352,-0.450509,-0.447272,1.358855
'\'(14.9-27.8]\'',0.416055,0.298196,0.365536,0.040672,0.733703,-1.170005,0.545122,0.486924,0.567397,-0.229663,0.093317,-0.27105,0.004254,0.338315,0.924462,0.424848,1.195675,-0.465427,-0.505683,1.30866
'\'(14.9-27.8]\'',0.452685,0.394348,0.363294,-0.047003,0.743771,-1.132669,0.549823,0.494312,0.571121,-0.228167,0.099392,-0.270184,-0.001897,0.359261,0.911039,0.453882,1.152942,-0.528828,-0.560659,1.158073
'\'(14.9-27.8]\'',0.262318,0.259584,0.325189,-0.017778,0.752388,-1.114368,0.553349,0.5017,0.575608,-0.227328,0.106308,-0.267642,-0.007877,0.389582,0.924322,0.44284,1.1798,-0.379648,-0.4404,1.484344
'\'(14.9-27.8]\'',0.335579,0.255041,0.300533,-0.074123,0.761383,-1.083621,0.562751,0.506246,0.583483,-0.227225,0.119231,-0.265446,-0.010281,0.412646,0.949814,0.462332,1.198993,-0.264034,-0.340757,1.716498
'\'(14.9-27.8]\'',0.350564,0.291382,0.310619,-0.014271,0.764445,-1.079228,0.570979,0.513066,0.590412,-0.2253,0.119601,-0.262153,-0.002481,0.427094,0.923189,0.452084,1.136506,-0.275223,-0.330449,1.703949
'\'(14.9-27.8]\'',0.232903,0.165703,0.307257,-0.042327,0.766307,-1.050677,0.573329,0.518749,0.592671,-0.225689,0.121822,-0.25834,0.00833,0.429115,0.948545,0.465431,1.150095,-0.346083,-0.385425,1.415325
'\'(14.9-27.8]\'',0.192943,0.134661,0.507869,-0.052847,0.769053,-1.040428,0.574504,0.524432,0.593922,-0.222924,0.126298,-0.258398,0.014571,0.442493,0.951502,0.462875,1.169462,-0.409484,-0.4404,1.170622
'\'(14.9-27.8]\'',0.228463,0.181602,0.186218,-0.069213,0.773818,-1.029447,0.581556,0.530684,0.598745,-0.221244,0.132086,-0.255509,0.019306,0.458949,0.955395,0.495557,1.16653,-0.480345,-0.505683,0.963566
'\'(14.9-27.8]\'',0.301169,0.2081,0.216478,-0.08441,0.78455,-1.04116,0.593309,0.536935,0.609245,-0.221285,0.13673,-0.254527,0.022387,0.475494,0.986269,0.50094,1.211783,-0.476615,-0.526299,0.850626
'\'(14.9-27.8]\'',0.256213,0.181602,0.256824,-0.108959,0.786854,-1.008217,0.603887,0.540913,0.618708,-0.218848,0.141206,-0.250714,0.032621,0.492639,0.994856,0.511621,1.205512,-0.457968,-0.529735,0.80043
'\'(14.9-27.8]\'',0.237898,0.144504,0.177252,-0.125325,0.790799,-0.985523,0.603887,0.547165,0.62002,-0.218479,0.144269,-0.247363,0.043529,0.508398,1.022243,0.533318,1.238221,-0.476615,-0.546915,0.681216
'\'(14.9-27.8]\'',0.195718,0.140718,0.210874,-0.040456,0.795596,-0.948187,0.602712,0.553416,0.623256,-0.220302,0.145329,-0.247999,0.062822,0.522086,1.034716,0.515551,1.249507,-0.51764,-0.591582,0.599648
'\'(14.9-27.8]\'',0.220693,0.125576,0.263548,-0.18845,0.80355,-0.918904,0.612114,0.561941,0.630124,-0.219483,0.146692,-0.249328,0.075128,0.538576,1.060341,0.536642,1.278829,-0.577312,-0.660302,0.430238
'\'(14.9-27.8]\'',0.176848,0.149803,0.244496,-0.093762,0.807306,-0.888157,0.620341,0.569329,0.637541,-0.219524,0.148257,-0.248981,0.092531,0.563664,1.055293,0.541193,1.256182,-0.502722,-0.577839,0.555727
'\'(14.9-27.8]\'',0.099702,0.111191,0.200787,-0.13491,0.818889,-0.839108,0.627393,0.575012,0.644501,-0.222084,0.150545,-0.247826,0.108402,0.581018,1.062703,0.556583,1.255608,-0.528828,-0.581275,0.354945
'\'(14.9-27.8]\'',0.102477,0.057437,0.135784,-0.117142,0.824255,-0.829591,0.626218,0.581264,0.645905,-0.220528,0.153439,-0.247306,0.120607,0.589333,1.066048,0.546701,1.277963,-0.595959,-0.595018,0.097693
'\'(14.9-27.8]\'',-0.051815,-0.065971,0.28148,-0.122987,0.832398,-0.802504,0.627393,0.586947,0.647461,-0.21764,0.158925,-0.244821,0.128551,0.610497,1.081711,0.598885,1.320322,-0.66682,-0.646558,-0.015247
'\'(14.9-27.8]\'',-0.027394,-0.062186,0.289325,-0.129299,0.843539,-0.798112,0.641497,0.594335,0.658023,-0.219913,0.164293,-0.24355,0.146207,0.637455,1.07029,0.610956,1.300886,-0.629525,-0.615634,-0.040345
