@relation '2025-08-MD-weka.filters.unsupervised.attribute.Discretize-B3-M-1.0-R25-precision6-weka.filters.unsupervised.attribute.Reorder-R1,2,3,4,5,6,7,8,9,10,11,12,13,14,15,16,17,18,19,20,21,22,23,24,26,27,28,29,30,31,32,33,34,35,36,37,38,39,40,41,42,43,44,45,46,47,48,49,50,51,52,53,54,55,56,57,58,59,60,61,62,63,64,65,66,67,68,69,70,71,72,73,74,75,76,77,78,79,80,81,82,83,84,85,86,87,88,89,90,91,92,93,94,95,96,97,98,99,100,101,102,103,104,105,106,107,108,109,110,111,112,113,114,115,116,117,118,119,120,121,122,123,124,125,126,127,25-weka.filters.unsupervised.attribute.Discretize-B3-M-1.0-R25-precision6-weka.filters.unsupervised.attribute.Discretize-B3-M-1.0-Rlast-precision6-weka.filters.unsupervised.attribute.Discretize-B3-M-1.0-Rlast-precision6-weka.filters.unsupervised.attribute.Discretize-B3-M-1.0-R127-precision6-weka.filters.unsupervised.attribute.Discretize-B3-M-1.0-R127-precision6-weka.filters.unsupervised.attribute.Reorder-R1,2,3,4,5,6,7,8,9,10,11,12,13,14,15,16,17,18,19,20,21,22,23,24,25,26,27,28,29,30,31,32,33,34,35,36,37,38,39,40,41,42,43,44,45,46,47,48,49,50,51,52,53,54,55,56,57,58,59,60,61,62,63,64,65,66,67,68,69,70,71,72,73,74,75,76,77,78,79,80,81,82,83,84,85,86,87,88,89,90,91,92,93,94,95,96,97,98,99,100,101,102,103,104,105,106,107,108,109,110,111,112,113,114,115,116,117,118,119,120,121,122,123,124,125,127,126-weka.filters.unsupervised.attribute.Discretize-B3-M-1.0-R127-precision6-weka.filters.unsupervised.attribute.Discretize-B3-M-1.0-R126-precision6-weka.filters.unsupervised.attribute.Reorder-R1,2,3,4,5,6,7,8,9,10,11,12,13,14,15,16,17,18,19,20,21,22,23,24,25,26,27,28,29,30,31,32,33,34,35,36,37,38,39,40,41,42,43,44,45,46,47,48,49,50,51,52,53,54,55,56,57,58,59,60,61,62,63,64,65,66,67,68,69,70,71,72,73,74,75,76,77,78,79,80,81,82,83,84,85,86,87,88,89,90,91,92,93,94,95,96,97,98,99,100,101,102,103,104,105,106,107,108,109,110,111,112,113,114,115,116,117,118,119,120,121,122,123,124,125,127,126-weka.filters.unsupervised.attribute.Remove-R1-weka.filters.unsupervised.attribute.Remove-R57,93,121-weka.filters.unsupervised.attribute.Standardize-weka.filters.unsupervised.attribute.Remove-R84-86,122-weka.filters.unsupervised.attribute.ReplaceMissingValues-weka.filters.unsupervised.instance.RemoveRange-V-R1-560-weka.filters.unsupervised.attribute.Remove-V-R105,63,102,99,109,65,115,114,113,112,108,107,103,106,69,62,60,38,3,5,119'

@attribute CUSR0000SAS numeric
@attribute M2SL numeric
@attribute CPIMEDSL numeric
@attribute CPIAUCSL numeric
@attribute PCEPI numeric
@attribute BOGMBASE numeric
@attribute CES3000000008 numeric
@attribute CES2000000008 numeric
@attribute CES0600000008 numeric
@attribute DSERRG3M086SBEA numeric
@attribute CUSR0000SA0L5 numeric
@attribute CUSR0000SA0L2 numeric
@attribute CUSR0000SAC numeric
@attribute CPIULFSL numeric
@attribute REALLN numeric
@attribute M1SL numeric
@attribute BUSINVx numeric
@attribute SRVPRD numeric
@attribute DPCERA3M086SBEA numeric
@attribute RETAILx numeric
@attribute UNRATE {'\'(-inf-6.266667]\'','\'(6.266667-10.533333]\'','\'(10.533333-inf)\''}

@data
-1.386738,-0.935794,-1.213464,-1.578646,-1.663206,-0.692391,-0.805676,-0.980561,-0.847358,-1.388625,-1.615108,-1.664429,-1.907638,-1.580509,-0.934333,-0.499087,-1.325513,-2.700257,-1.672117,-1.163298,'\'(-inf-6.266667]\''
-1.235693,-0.888578,-1.127649,-1.308209,-1.383484,-0.666682,-1.347045,-1.36836,-1.322141,-1.269715,-1.322746,-1.344893,-1.446542,-1.31052,-0.923614,-0.471866,-1.206679,-1.640161,-1.345819,-1.070886,'\'(-inf-6.266667]\''
-1.234799,-0.888393,-1.12708,-1.308327,-1.383026,-0.667086,-1.345678,-1.367268,-1.320914,-1.269285,-1.322746,-1.344893,-1.446542,-1.31052,-0.923443,-0.471763,-1.206269,-1.63651,-1.340759,-1.070207,'\'(-inf-6.266667]\''
-1.234799,-0.888141,-1.126512,-1.308679,-1.382721,-0.667144,-1.342944,-1.36836,-1.319688,-1.26877,-1.322746,-1.344893,-1.448231,-1.31052,-0.923333,-0.471702,-1.205656,-1.631883,-1.336115,-1.069429,'\'(-inf-6.266667]\''
-1.233906,-0.887989,-1.126512,-1.308562,-1.381805,-0.666913,-1.341577,-1.366175,-1.318461,-1.267739,-1.322746,-1.344893,-1.448231,-1.309341,-0.92316,-0.471702,-1.204046,-1.628514,-1.337908,-1.069371,'\'(-inf-6.266667]\''
-1.233012,-0.887636,-1.125944,-1.307857,-1.381561,-0.666913,-1.341577,-1.365083,-1.317234,-1.267252,-1.322746,-1.344893,-1.446542,-1.308162,-0.922994,-0.471497,-1.203351,-1.624737,-1.331919,-1.068635,'\'(-inf-6.266667]\''
-1.233012,-0.887316,-1.125376,-1.307034,-1.380218,-0.666798,-1.34021,-1.362898,-1.317234,-1.266192,-1.321507,-1.343599,-1.446542,-1.306983,-0.922854,-0.471395,-1.202123,-1.623258,-1.330094,-1.067773,'\'(-inf-6.266667]\''
-1.232118,-0.887131,-1.125376,-1.306564,-1.379241,-0.666509,-1.34021,-1.361806,-1.317234,-1.265133,-1.320269,-1.342306,-1.446542,-1.306983,-0.922739,-0.471292,-1.201169,-1.621495,-1.331791,-1.067805,'\'(-inf-6.266667]\''
-1.231224,-0.886929,-1.124807,-1.306211,-1.37857,-0.666567,-1.342944,-1.359621,-1.317234,-1.264274,-1.320269,-1.342306,-1.446542,-1.305804,-0.922645,-0.471251,-1.200964,-1.621117,-1.32878,-1.067195,'\'(-inf-6.266667]\''
-1.230331,-0.886879,-1.124239,-1.305388,-1.377349,-0.666567,-1.341577,-1.358529,-1.317234,-1.263386,-1.31903,-1.341012,-1.443164,-1.305804,-0.922561,-0.471435,-1.201496,-1.618316,-1.32372,-1.068451,'\'(-inf-6.266667]\''
-1.229437,-0.886912,-1.124239,-1.304213,-1.376219,-0.666567,-1.342944,-1.356344,-1.317234,-1.262383,-1.31903,-1.341012,-1.443164,-1.304625,-0.922454,-0.471538,-1.201101,-1.616521,-1.327179,-1.067757,'\'(-inf-6.266667]\''
-1.229437,-0.886811,-1.123671,-1.304213,-1.375914,-0.666451,-1.342944,-1.355251,-1.317234,-1.26161,-1.31903,-1.341012,-1.443164,-1.304625,-0.922363,-0.471558,-1.201223,-1.613594,-1.327403,-1.070276,'\'(-inf-6.266667]\''
-1.228543,-0.886694,-1.123671,-1.303508,-1.375365,-0.666104,-1.337476,-1.356344,-1.313553,-1.26098,-1.317791,-1.339718,-1.443164,-1.303446,-0.922152,-0.471661,-1.199873,-1.606574,-1.32798,-1.070707,'\'(-inf-6.266667]\''
-1.228543,-0.886626,-1.123102,-1.303978,-1.375639,-0.666567,-1.334741,-1.355251,-1.3111,-1.260722,-1.31903,-1.339718,-1.443164,-1.302267,-0.922086,-0.47164,-1.198796,-1.605504,-1.32657,-1.06821,'\'(-inf-6.266667]\''
-1.227649,-0.886593,-1.122534,-1.303508,-1.375151,-0.667202,-1.333374,-1.353067,-1.309873,-1.260207,-1.317791,-1.339718,-1.444853,-1.302267,-0.922044,-0.471661,-1.197377,-1.601569,-1.324361,-1.067857,'\'(-inf-6.266667]\''
-1.226756,-0.886441,-1.121966,-1.303508,-1.374876,-0.66726,-1.333374,-1.342143,-1.308646,-1.260035,-1.317791,-1.339718,-1.443164,-1.302267,-0.921993,-0.471681,-1.196327,-1.596123,-1.317154,-1.067962,'\'(-inf-6.266667]\''
-1.226756,-0.886307,-1.121397,-1.30198,-1.373167,-0.667144,-1.333374,-1.350882,-1.309873,-1.259405,-1.316552,-1.338425,-1.441475,-1.302267,-0.921967,-0.471722,-1.196314,-1.58712,-1.309212,-1.06546,'\'(-inf-6.266667]\''
-1.225862,-0.886172,-1.121397,-1.301627,-1.372679,-0.667144,-1.333374,-1.347605,-1.308646,-1.258603,-1.316552,-1.337131,-1.441475,-1.302267,-0.921972,-0.471722,-1.195536,-1.595494,-1.319749,-1.066922,'\'(-inf-6.266667]\''
-1.225862,-0.885936,-1.121397,-1.301157,-1.372465,-0.666971,-1.333374,-1.347605,-1.308646,-1.25803,-1.316552,-1.337131,-1.441475,-1.302267,-0.921989,-0.471722,-1.19525,-1.595273,-1.319877,-1.067053,'\'(-inf-6.266667]\''
-1.224968,-0.885633,-1.120829,-1.301862,-1.37161,-0.666682,-1.333374,-1.34542,-1.307419,-1.257286,-1.316552,-1.337131,-1.443164,-1.301088,-0.921984,-0.471599,-1.194732,-1.594392,-1.31882,-1.06802,'\'(-inf-6.266667]\''
-1.224968,-0.885162,-1.120829,-1.301157,-1.370817,-0.666798,-1.332007,-1.343235,-1.306192,-1.25677,-1.315313,-1.337131,-1.441475,-1.301088,-0.921959,-0.471374,-1.194977,-1.593416,-1.3193,-1.067694,'\'(-inf-6.266667]\''
-1.224074,-0.88491,-1.120261,-1.301157,-1.370542,-0.667029,-1.33064,-1.343235,-1.306192,-1.25614,-1.315313,-1.337131,-1.441475,-1.301088,-0.921927,-0.471395,-1.194759,-1.593322,-1.316866,-1.067784,'\'(-inf-6.266667]\''
-1.224074,-0.884725,-1.120261,-1.299512,-1.369993,-0.666913,-1.33064,-1.342143,-1.304966,-1.255768,-1.314074,-1.335837,-1.439786,-1.301088,-0.92188,-0.471456,-1.194868,-1.592692,-1.314368,-1.066943,'\'(-inf-6.266667]\''
-1.223181,-0.884489,-1.119692,-1.299159,-1.368375,-0.666798,-1.332007,-1.342143,-1.306192,-1.255052,-1.314074,-1.334544,-1.438097,-1.301088,-0.921879,-0.471456,-1.1948,-1.593574,-1.316162,-1.06832,'\'(-inf-6.266667]\''
-1.223181,-0.884237,-1.119124,-1.298807,-1.368283,-0.667086,-1.33064,-1.339958,-1.306192,-1.254679,-1.312836,-1.33325,-1.436408,-1.299909,-0.921804,-0.471497,-1.196341,-1.592566,-1.322503,-1.069014,'\'(6.266667-10.533333]\''
-1.222287,-0.883951,-1.119124,-1.298454,-1.368192,-0.667491,-1.33064,-1.338866,-1.304966,-1.254708,-1.312836,-1.33325,-1.438097,-1.299909,-0.921766,-0.471415,-1.196736,-1.593164,-1.321222,-1.06894,'\'(6.266667-10.533333]\''
-1.222287,-0.883547,-1.118556,-1.298454,-1.367764,-0.667895,-1.33064,-1.338866,-1.303739,-1.25425,-1.312836,-1.33325,-1.438097,-1.29873,-0.921734,-0.471313,-1.197036,-1.594298,-1.319364,-1.069277,'\'(6.266667-10.533333]\''
-1.222287,-0.883244,-1.118556,-1.298454,-1.368039,-0.667895,-1.33064,-1.336681,-1.303739,-1.254135,-1.312836,-1.33325,-1.438097,-1.29873,-0.921667,-0.471251,-1.197759,-1.591716,-1.312991,-1.068283,'\'(6.266667-10.533333]\''
-1.221393,-0.882975,-1.117988,-1.298807,-1.368314,-0.667838,-1.327906,-1.334496,-1.302512,-1.253505,-1.312836,-1.33325,-1.438097,-1.299909,-0.921651,-0.47121,-1.197759,-1.592535,-1.312735,-1.069965,'\'(6.266667-10.533333]\''
-1.221393,-0.882588,-1.117988,-1.298454,-1.368039,-0.667838,-1.326539,-1.333404,-1.301285,-1.253133,-1.312836,-1.33325,-1.438097,-1.29873,-0.921615,-0.471087,-1.197664,-1.590394,-1.309564,-1.068562,'\'(6.266667-10.533333]\''
-1.221393,-0.882234,-1.117419,-1.298454,-1.367825,-0.667606,-1.325172,-1.331219,-1.300058,-1.252503,-1.312836,-1.33325,-1.438097,-1.297551,-0.921476,-0.471046,-1.197787,-1.587372,-1.308315,-1.067857,'\'(6.266667-10.533333]\''
-1.221393,-0.882016,-1.117419,-1.297514,-1.366788,-0.667433,-1.323805,-1.333404,-1.300058,-1.251987,-1.311597,-1.331956,-1.436408,-1.297551,-0.921385,-0.471046,-1.1975,-1.583469,-1.309884,-1.067931,'\'(6.266667-10.533333]\''
-1.220499,-0.881679,-1.116851,-1.297279,-1.366391,-0.667375,-1.322438,-1.332311,-1.298831,-1.25173,-1.311597,-1.331956,-1.436408,-1.297551,-0.92132,-0.470923,-1.196886,-1.580636,-1.308026,-1.066879,'\'(6.266667-10.533333]\''
-1.220499,-0.881359,-1.116283,-1.296809,-1.365841,-0.667202,-1.325172,-1.330126,-1.298831,-1.251014,-1.311597,-1.331956,-1.436408,-1.296372,-0.921266,-0.470862,-1.196341,-1.57796,-1.30508,-1.066711,'\'(6.266667-10.533333]\''
-1.219606,-0.88109,-1.116283,-1.296809,-1.365872,-0.666971,-1.321071,-1.330126,-1.296378,-1.250727,-1.311597,-1.331956,-1.436408,-1.296372,-0.921222,-0.470801,-1.196109,-1.576103,-1.301781,-1.064971,'\'(6.266667-10.533333]\''
-1.219606,-0.880703,-1.116283,-1.296809,-1.365841,-0.666682,-1.321071,-1.326849,-1.295151,-1.250298,-1.311597,-1.331956,-1.438097,-1.296372,-0.921151,-0.470657,-1.195277,-1.573018,-1.296625,-1.064277,'\'(-inf-6.266667]\''
-1.218712,-0.88035,-1.115714,-1.296456,-1.365719,-0.66622,-1.319703,-1.325757,-1.295151,-1.249925,-1.311597,-1.331956,-1.436408,-1.296372,-0.920995,-0.470575,-1.195141,-1.570626,-1.292909,-1.06424,'\'(-inf-6.266667]\''
-1.218712,-0.880013,-1.115714,-1.296104,-1.364803,-0.666624,-1.318336,-1.32248,-1.293924,-1.249066,-1.311597,-1.330663,-1.436408,-1.295193,-0.92086,-0.470575,-1.19435,-1.568611,-1.292749,-1.063389,'\'(-inf-6.266667]\''
-1.218712,-0.879576,-1.115146,-1.295281,-1.363521,-0.667086,-1.316969,-1.331219,-1.293924,-1.248522,-1.309119,-1.329369,-1.434719,-1.295193,-0.920746,-0.470473,-1.193559,-1.564708,-1.293006,-1.063378,'\'(-inf-6.266667]\''
-1.217818,-0.879071,-1.114578,-1.294576,-1.36288,-0.666971,-1.316969,-1.323572,-1.292697,-1.247949,-1.309119,-1.328075,-1.434719,-1.294014,-0.920615,-0.470411,-1.192672,-1.561969,-1.288554,-1.061696,'\'(-inf-6.266667]\''
-1.217818,-0.878667,-1.114578,-1.294105,-1.362331,-0.66674,-1.316969,-1.320295,-1.29147,-1.247663,-1.309119,-1.328075,-1.43303,-1.294014,-0.920447,-0.470329,-1.192468,-1.556366,-1.286664,-1.061144,'\'(-inf-6.266667]\''
-1.216924,-0.878331,-1.114009,-1.293753,-1.362026,-0.666682,-1.315602,-1.323572,-1.29147,-1.246918,-1.30788,-1.328075,-1.43303,-1.292835,-0.920258,-0.470248,-1.191445,-1.55539,-1.282468,-1.06045,'\'(-inf-6.266667]\''
-1.216924,-0.878028,-1.114009,-1.294105,-1.361721,-0.666451,-1.316969,-1.32248,-1.29147,-1.246345,-1.309119,-1.328075,-1.43303,-1.292835,-0.920015,-0.470288,-1.190763,-1.552778,-1.285223,-1.061769,'\'(-inf-6.266667]\''
-1.216031,-0.877775,-1.113441,-1.293988,-1.361995,-0.66622,-1.315602,-1.319202,-1.290244,-1.24603,-1.309119,-1.329369,-1.434719,-1.292835,-0.919824,-0.470309,-1.190245,-1.551519,-1.283461,-1.060161,'\'(-inf-6.266667]\''
-1.216031,-0.877439,-1.113441,-1.293283,-1.361293,-0.666278,-1.314235,-1.319202,-1.289017,-1.245744,-1.30788,-1.328075,-1.43303,-1.292835,-0.919661,-0.470288,-1.18959,-1.548717,-1.281924,-1.059519,'\'(-inf-6.266667]\''
-1.216031,-0.877085,-1.113441,-1.291637,-1.358912,-0.66622,-1.314235,-1.31811,-1.289017,-1.245515,-1.306642,-1.325488,-1.429652,-1.291656,-0.919466,-0.47035,-1.188608,-1.54601,-1.275775,-1.059209,'\'(-inf-6.266667]\''
-1.216031,-0.876698,-1.112873,-1.292107,-1.359401,-0.666047,-1.312868,-1.31811,-1.289017,-1.245143,-1.306642,-1.325488,-1.431341,-1.291656,-0.919263,-0.470268,-1.187899,-1.543901,-1.278529,-1.057574,'\'(-inf-6.266667]\''
-1.215137,-0.876261,-1.112873,-1.292107,-1.359065,-0.66622,-1.312868,-1.315925,-1.28779,-1.244656,-1.306642,-1.325488,-1.429652,-1.291656,-0.919056,-0.470145,-1.187844,-1.542138,-1.271163,-1.057022,'\'(-inf-6.266667]\''
-1.215137,-0.875773,-1.112304,-1.292107,-1.359248,-0.665642,-1.312868,-1.31374,-1.28779,-1.244312,-1.306642,-1.325488,-1.431341,-1.291656,-0.918875,-0.470043,-1.187694,-1.541729,-1.268024,-1.057043,'\'(-inf-6.266667]\''
-1.214243,-0.875352,-1.111736,-1.291402,-1.358058,-0.666047,-1.311501,-1.314833,-1.286563,-1.243453,-1.305403,-1.325488,-1.429652,-1.291656,-0.918654,-0.46994,-1.187449,-1.540186,-1.268184,-1.056596,'\'(-inf-6.266667]\''
-1.214243,-0.874898,-1.111736,-1.290932,-1.357539,-0.666393,-1.310134,-1.31374,-1.285336,-1.243166,-1.305403,-1.324194,-1.429652,-1.291656,-0.918435,-0.469817,-1.187012,-1.535653,-1.270298,-1.057401,'\'(-inf-6.266667]\''
-1.214243,-0.874427,-1.111736,-1.29058,-1.357936,-0.666278,-1.308767,-1.311556,-1.284109,-1.242995,-1.305403,-1.324194,-1.429652,-1.290477,-0.918274,-0.469756,-1.186712,-1.532978,-1.267447,-1.056554,'\'(-inf-6.266667]\''
-1.213349,-0.873989,-1.111736,-1.290932,-1.357966,-0.666104,-1.308767,-1.315925,-1.284109,-1.242737,-1.305403,-1.325488,-1.429652,-1.290477,-0.918072,-0.469654,-1.186576,-1.528256,-1.265398,-1.056092,'\'(-inf-6.266667]\''
-1.213349,-0.873518,-1.111168,-1.29058,-1.357172,-0.665989,-1.3074,-1.312648,-1.282883,-1.24205,-1.305403,-1.324194,-1.429652,-1.290477,-0.917798,-0.46951,-1.185962,-1.528886,-1.265045,-1.05677,'\'(-inf-6.266667]\''
-1.212456,-0.873131,-1.110599,-1.289404,-1.356104,-0.6657,-1.306032,-1.310463,-1.281656,-1.24182,-1.304164,-1.322901,-1.427963,-1.289298,-0.917425,-0.46951,-1.185321,-1.526651,-1.259569,-1.055976,'\'(-inf-6.266667]\''
-1.212456,-0.872677,-1.110599,-1.288464,-1.355127,-0.665353,-1.304665,-1.309371,-1.280429,-1.241448,-1.302925,-1.321607,-1.426274,-1.288119,-0.917148,-0.469326,-1.184735,-1.524038,-1.256622,-1.05473,'\'(-inf-6.266667]\''
-1.211562,-0.872256,-1.110031,-1.287759,-1.354456,-0.665469,-1.306032,-1.307186,-1.280429,-1.241133,-1.302925,-1.320313,-1.424585,-1.288119,-0.91694,-0.469223,-1.184067,-1.520827,-1.254572,-1.054867,'\'(-inf-6.266667]\''
-1.211562,-0.871852,-1.110031,-1.288111,-1.354547,-0.665296,-1.303298,-1.307186,-1.279202,-1.240732,-1.302925,-1.321607,-1.426274,-1.288119,-0.916732,-0.469182,-1.183303,-1.516987,-1.255661,-1.055135,'\'(-inf-6.266667]\''
-1.211562,-0.871465,-1.110031,-1.287759,-1.353601,-0.66518,-1.303298,-1.306094,-1.279202,-1.239902,-1.302925,-1.321607,-1.426274,-1.28694,-0.916533,-0.46906,-1.182266,-1.511604,-1.255982,-1.053253,'\'(-inf-6.266667]\''
-1.210668,-0.870927,-1.109463,-1.287406,-1.352899,-0.664776,-1.301931,-1.307186,-1.277975,-1.239386,-1.301686,-1.320313,-1.424585,-1.28694,-0.916327,-0.468855,-1.181721,-1.510565,-1.25169,-1.054493,'\'(-inf-6.266667]\''
-1.209774,-0.870641,-1.109463,-1.286231,-1.352167,-0.66414,-1.300564,-1.300632,-1.276748,-1.239071,-1.300447,-1.31902,-1.422896,-1.285761,-0.916161,-0.468916,-1.181666,-1.508393,-1.244772,-1.052101,'\'(-inf-6.266667]\''
-1.209774,-0.870304,-1.108895,-1.285526,-1.351129,-0.664544,-1.300564,-1.301724,-1.276748,-1.238613,-1.300447,-1.31902,-1.422896,-1.285761,-0.915918,-0.468834,-1.18093,-1.501688,-1.242882,-1.05268,'\'(-inf-6.266667]\''
-1.209774,-0.8699,-1.108895,-1.285878,-1.350427,-0.664949,-1.300564,-1.305001,-1.276748,-1.237897,-1.300447,-1.31902,-1.422896,-1.285761,-0.915636,-0.468711,-1.180412,-1.498478,-1.238719,-1.05217,'\'(-inf-6.266667]\''
-1.209774,-0.86953,-1.108895,-1.285526,-1.350121,-0.664776,-1.300564,-1.302817,-1.275522,-1.237324,-1.300447,-1.31902,-1.422896,-1.284582,-0.915438,-0.46867,-1.179839,-1.49448,-1.236637,-1.051365,'\'(-inf-6.266667]\''
-1.208881,-0.86921,-1.108326,-1.285408,-1.349755,-0.664602,-1.29783,-1.299539,-1.274295,-1.236894,-1.300447,-1.31902,-1.422896,-1.284582,-0.915262,-0.468609,-1.179061,-1.493882,-1.23558,-1.05044,'\'(-inf-6.266667]\''
-1.208881,-0.86879,-1.108326,-1.285056,-1.349694,-0.664487,-1.29783,-1.301724,-1.274295,-1.236322,-1.300447,-1.31902,-1.422896,-1.284582,-0.915082,-0.468507,-1.17853,-1.48979,-1.227317,-1.048915,'\'(-inf-6.266667]\''
-1.207987,-0.868302,-1.107758,-1.284703,-1.348992,-0.66414,-1.296463,-1.300632,-1.273068,-1.235892,-1.299209,-1.317726,-1.422896,-1.284582,-0.914926,-0.468445,-1.177889,-1.487334,-1.223858,-1.048826,'\'(-inf-6.266667]\''
-1.207987,-0.867797,-1.107758,-1.284586,-1.348351,-0.663851,-1.296463,-1.298447,-1.271841,-1.235491,-1.299209,-1.317726,-1.422896,-1.283403,-0.914698,-0.468199,-1.177575,-1.483085,-1.219374,-1.048258,'\'(-inf-6.266667]\''
-1.207987,-0.867242,-1.10719,-1.284233,-1.347985,-0.663851,-1.295096,-1.297355,-1.270614,-1.234632,-1.299209,-1.317726,-1.422896,-1.283403,-0.914495,-0.467994,-1.177057,-1.478772,-1.215691,-1.046639,'\'(-inf-6.266667]\''
-1.207987,-0.866653,-1.10719,-1.28388,-1.347222,-0.663562,-1.292362,-1.298447,-1.269387,-1.234317,-1.29797,-1.316432,-1.421207,-1.283403,-0.914286,-0.46781,-1.175475,-1.474019,-1.218253,-1.04554,'\'(-inf-6.266667]\''
-1.207093,-0.866283,-1.10719,-1.28341,-1.346916,-0.663389,-1.29783,-1.294077,-1.271841,-1.23383,-1.29797,-1.316432,-1.421207,-1.283403,-0.914102,-0.467708,-1.175488,-1.470556,-1.214249,-1.050093,'\'(-inf-6.266667]\''
-1.206199,-0.865795,-1.106621,-1.282352,-1.346214,-0.663042,-1.295096,-1.296262,-1.270614,-1.233458,-1.29797,-1.316432,-1.419518,-1.282224,-0.913916,-0.467544,-1.174465,-1.466716,-1.219854,-1.049031,'\'(-inf-6.266667]\''
-1.206199,-0.86534,-1.106621,-1.281882,-1.345482,-0.662522,-1.292362,-1.292985,-1.268161,-1.232971,-1.296731,-1.315139,-1.417829,-1.282224,-0.913656,-0.467482,-1.173456,-1.463001,-1.213929,-1.043716,'\'(-inf-6.266667]\''
-1.205305,-0.864869,-1.106621,-1.28153,-1.344932,-0.662869,-1.290994,-1.29517,-1.268161,-1.232455,-1.295492,-1.315139,-1.417829,-1.281045,-0.913439,-0.4674,-1.172147,-1.459885,-1.209541,-1.042838,'\'(-inf-6.266667]\''
-1.204412,-0.864381,-1.106053,-1.28153,-1.344719,-0.663216,-1.289627,-1.287523,-1.26448,-1.23194,-1.295492,-1.313845,-1.419518,-1.281045,-0.913244,-0.46736,-1.171424,-1.454376,-1.199613,-1.042076,'\'(-inf-6.266667]\''
-1.204412,-0.86391,-1.105485,-1.281177,-1.344078,-0.6631,-1.28826,-1.286431,-1.263253,-1.231596,-1.295492,-1.313845,-1.417829,-1.279866,-0.912993,-0.467237,-1.169665,-1.450379,-1.197659,-1.04328,'\'(-inf-6.266667]\''
-1.203518,-0.86354,-1.105485,-1.280354,-1.343284,-0.662869,-1.28826,-1.289708,-1.26448,-1.231138,-1.294253,-1.313845,-1.417829,-1.279866,-0.912731,-0.467134,-1.168833,-1.443107,-1.193143,-1.04227,'\'(-inf-6.266667]\''
-1.203518,-0.863254,-1.104916,-1.279179,-1.342155,-0.662811,-1.285526,-1.284246,-1.262026,-1.230508,-1.294253,-1.311258,-1.41614,-1.279866,-0.912502,-0.467196,-1.167892,-1.439802,-1.193752,-1.040393,'\'(-inf-6.266667]\''
-1.203518,-0.862749,-1.104916,-1.277651,-1.340689,-0.662465,-1.285526,-1.280969,-1.2608,-1.230193,-1.291776,-1.309964,-1.412762,-1.279866,-0.912245,-0.467093,-1.166719,-1.435993,-1.199068,-1.041129,'\'(-inf-6.266667]\''
-1.202624,-0.862278,-1.10378,-1.278004,-1.340323,-0.662118,-1.285526,-1.285338,-1.262026,-1.22962,-1.293015,-1.309964,-1.412762,-1.279866,-0.911984,-0.466929,-1.165301,-1.430138,-1.191125,-1.039137,'\'(-inf-6.266667]\''
-1.202624,-0.86179,-1.10378,-1.278356,-1.340201,-0.662234,-1.284159,-1.282061,-1.259573,-1.228933,-1.293015,-1.311258,-1.414451,-1.279866,-0.911702,-0.466786,-1.163937,-1.425479,-1.186417,-1.038742,'\'(-inf-6.266667]\''
-1.20173,-0.861167,-1.10378,-1.277534,-1.339957,-0.662002,-1.282792,-1.280969,-1.258346,-1.228188,-1.291776,-1.309964,-1.414451,-1.278687,-0.911402,-0.466561,-1.163405,-1.419813,-1.175624,-1.038411,'\'(-inf-6.266667]\''
-1.200837,-0.860646,-1.103211,-1.277181,-1.339804,-0.661714,-1.281425,-1.278784,-1.257119,-1.227587,-1.290537,-1.30867,-1.412762,-1.277508,-0.911129,-0.466315,-1.16275,-1.415343,-1.166432,-1.035189,'\'(-inf-6.266667]\''
-1.199943,-0.860124,-1.102643,-1.276006,-1.33895,-0.661425,-1.281425,-1.277692,-1.257119,-1.226785,-1.290537,-1.30867,-1.411073,-1.277508,-0.910864,-0.466172,-1.161714,-1.41059,-1.16672,-1.033643,'\'(-inf-6.266667]\''
-1.199943,-0.859535,-1.102643,-1.274831,-1.337118,-0.660616,-1.280058,-1.277692,-1.255892,-1.226097,-1.289298,-1.306083,-1.409384,-1.276329,-0.910645,-0.465946,-1.160623,-1.40442,-1.165343,-1.03318,'\'(-inf-6.266667]\''
-1.199049,-0.859064,-1.102075,-1.274478,-1.336508,-0.660905,-1.278691,-1.277692,-1.255892,-1.22541,-1.288059,-1.306083,-1.407695,-1.276329,-0.91033,-0.46568,-1.159464,-1.399887,-1.161084,-1.032318,'\'(-inf-6.266667]\''
-1.199049,-0.858626,-1.102075,-1.272127,-1.334402,-0.661309,-1.275956,-1.27223,-1.253439,-1.224694,-1.28682,-1.303495,-1.404317,-1.27515,-0.909998,-0.465578,-1.157445,-1.394662,-1.156568,-1.031929,'\'(-inf-6.266667]\''
-1.198155,-0.858189,-1.100938,-1.270952,-1.33315,-0.661251,-1.275956,-1.271137,-1.252212,-1.22415,-1.285582,-1.302202,-1.402628,-1.27515,-0.909745,-0.465393,-1.155836,-1.388492,-1.151315,-1.029632,'\'(-inf-6.266667]\''
-1.196368,-0.857836,-1.10037,-1.269777,-1.33138,-0.660905,-1.273222,-1.266768,-1.249758,-1.222861,-1.283104,-1.299614,-1.400939,-1.272793,-0.9095,-0.465127,-1.154445,-1.382448,-1.150963,-1.031451,'\'(-inf-6.266667]\''
-1.195474,-0.857701,-1.099802,-1.268954,-1.330739,-0.660847,-1.273222,-1.265675,-1.249758,-1.221744,-1.283104,-1.299614,-1.400939,-1.271614,-0.909301,-0.465229,-1.15229,-1.37716,-1.157304,-1.033716,'\'(-inf-6.266667]\''
-1.19458,-0.857516,-1.099233,-1.268601,-1.329457,-0.660558,-1.273222,-1.262398,-1.248531,-1.220427,-1.281865,-1.299614,-1.400939,-1.270435,-0.908977,-0.465168,-1.149972,-1.369983,-1.155511,-1.030725,'\'(-inf-6.266667]\''
-1.192793,-0.857566,-1.098097,-1.267779,-1.328449,-0.65998,-1.270488,-1.262398,-1.247305,-1.219539,-1.280626,-1.298321,-1.39925,-1.269256,-0.908791,-0.465434,-1.148144,-1.364821,-1.149682,-1.030168,'\'(-inf-6.266667]\''
-1.192793,-0.85728,-1.097528,-1.265428,-1.326465,-0.660211,-1.269121,-1.260213,-1.244851,-1.218766,-1.279387,-1.295733,-1.397561,-1.268077,-0.908669,-0.465332,-1.146194,-1.361484,-1.148625,-1.028659,'\'(-inf-6.266667]\''
-1.191005,-0.856809,-1.095823,-1.264253,-1.324817,-0.659807,-1.266387,-1.256936,-1.243624,-1.217477,-1.278149,-1.29444,-1.394183,-1.268077,-0.908488,-0.465086,-1.144625,-1.356447,-1.142315,-1.028386,'\'(-inf-6.266667]\''
-1.190112,-0.856759,-1.094687,-1.263078,-1.323443,-0.659691,-1.26502,-1.258028,-1.242397,-1.216102,-1.27691,-1.293146,-1.394183,-1.265719,-0.908292,-0.46525,-1.142512,-1.351159,-1.145326,-1.028964,'\'(-inf-6.266667]\''
-1.188324,-0.856489,-1.09355,-1.262725,-1.32268,-0.65946,-1.263653,-1.255844,-1.24117,-1.215215,-1.27691,-1.293146,-1.394183,-1.26454,-0.908151,-0.465209,-1.140589,-1.345871,-1.143885,-1.028917,'\'(-inf-6.266667]\''
-1.188324,-0.856001,-1.092982,-1.262255,-1.321581,-0.658767,-1.26502,-1.254751,-1.24117,-1.214413,-1.275671,-1.293146,-1.394183,-1.26454,-0.907972,-0.465086,-1.138966,-1.340834,-1.142796,-1.029873,'\'(-inf-6.266667]\''
-1.18743,-0.855766,-1.091845,-1.26249,-1.321551,-0.658998,-1.263653,-1.251474,-1.239944,-1.213639,-1.27691,-1.291852,-1.394183,-1.263361,-0.90782,-0.465106,-1.13692,-1.335829,-1.139529,-1.036329,'\'(-inf-6.266667]\''
-1.186537,-0.855177,-1.091277,-1.261315,-1.32094,-0.659287,-1.260918,-1.251474,-1.23749,-1.21278,-1.275671,-1.291852,-1.394183,-1.262182,-0.907704,-0.464881,-1.136129,-1.332933,-1.142091,-1.037612,'\'(-inf-6.266667]\''
-1.185643,-0.854403,-1.090709,-1.261315,-1.320666,-0.659345,-1.260918,-1.250382,-1.23749,-1.212236,-1.275671,-1.290559,-1.394183,-1.262182,-0.90757,-0.464512,-1.134997,-1.327613,-1.138504,-1.036345,'\'(-inf-6.266667]\''
-1.184749,-0.853999,-1.089572,-1.260139,-1.319781,-0.659287,-1.259551,-1.248197,-1.236263,-1.211234,-1.275671,-1.290559,-1.394183,-1.261003,-0.907426,-0.464635,-1.134247,-1.327204,-1.131906,-1.036024,'\'(-inf-6.266667]\''
-1.184749,-0.853141,-1.089004,-1.260139,-1.318773,-0.659229,-1.258184,-1.24492,-1.235036,-1.210489,-1.274432,-1.290559,-1.392494,-1.259824,-0.90726,-0.464328,-1.133756,-1.320373,-1.13197,-1.036603,'\'(-inf-6.266667]\''
-1.182962,-0.852333,-1.087867,-1.257789,-1.317094,-0.658883,-1.258184,-1.241643,-1.233809,-1.209315,-1.273193,-1.287971,-1.390805,-1.258645,-0.907049,-0.464062,-1.133415,-1.315714,-1.127839,-1.032807,'\'(-inf-6.266667]\''
-1.182962,-0.85161,-1.087299,-1.256613,-1.315293,-0.65842,-1.25545,-1.237273,-1.230129,-1.208599,-1.271955,-1.286678,-1.387427,-1.257466,-0.906848,-0.463837,-1.132678,-1.311717,-1.130337,-1.033711,'\'(-inf-6.266667]\''
-1.182068,-0.850852,-1.08673,-1.255438,-1.313645,-0.658478,-1.252716,-1.236181,-1.228902,-1.20774,-1.269477,-1.28409,-1.384049,-1.256287,-0.906645,-0.463509,-1.131137,-1.30731,-1.128255,-1.03368,'\'(-inf-6.266667]\''
-1.181174,-0.850196,-1.085594,-1.254263,-1.312027,-0.658189,-1.252716,-1.232903,-1.227675,-1.20648,-1.268238,-1.282797,-1.384049,-1.253929,-0.906397,-0.463304,-1.130346,-1.303123,-1.122362,-1.03,'\'(-inf-6.266667]\''
-1.179387,-0.849607,-1.084457,-1.253088,-1.310532,-0.657785,-1.251349,-1.230719,-1.226448,-1.205363,-1.266999,-1.281503,-1.38236,-1.25275,-0.906138,-0.46312,-1.130401,-1.301329,-1.129024,-1.032029,'\'(-inf-6.266667]\''
-1.179387,-0.849102,-1.083889,-1.250737,-1.308761,-0.657438,-1.249982,-1.227441,-1.223995,-1.204274,-1.26576,-1.280209,-1.380671,-1.251571,-0.90586,-0.462956,-1.12871,-1.293113,-1.12422,-1.028943,'\'(-inf-6.266667]\''
-1.177599,-0.848497,-1.082752,-1.249562,-1.307907,-0.656687,-1.247247,-1.225257,-1.222768,-1.203071,-1.264522,-1.278916,-1.377293,-1.250392,-0.905535,-0.462771,-1.127332,-1.288202,-1.114772,-1.025084,'\'(-inf-6.266667]\''
-1.176705,-0.848059,-1.082184,-1.248386,-1.305404,-0.656745,-1.241779,-1.216518,-1.217861,-1.201582,-1.263283,-1.276328,-1.375604,-1.248034,-0.905246,-0.462567,-1.126064,-1.287447,-1.110192,-1.027576,'\'(-inf-6.266667]\''
-1.175812,-0.847554,-1.081616,-1.247211,-1.303206,-0.657034,-1.240412,-1.221979,-1.216634,-1.199864,-1.262044,-1.275035,-1.373915,-1.246855,-0.904925,-0.462485,-1.124959,-1.280805,-1.109455,-1.025973,'\'(-inf-6.266667]\''
-1.174024,-0.847083,-1.080479,-1.246036,-1.301436,-0.656861,-1.237678,-1.216518,-1.21418,-1.198289,-1.260805,-1.273741,-1.372226,-1.245676,-0.904602,-0.462321,-1.124114,-1.27835,-1.097348,-1.02266,'\'(-inf-6.266667]\''
-1.17313,-0.846663,-1.079911,-1.24486,-1.299726,-0.656572,-1.236311,-1.215425,-1.211726,-1.197057,-1.259566,-1.272447,-1.370537,-1.244497,-0.90429,-0.462096,-1.122423,-1.272904,-1.100071,-1.022981,'\'(-inf-6.266667]\''
-1.172237,-0.846124,-1.079342,-1.243685,-1.297712,-0.656514,-1.233576,-1.211056,-1.209273,-1.195625,-1.258328,-1.271154,-1.370537,-1.244497,-0.903986,-0.461809,-1.120609,-1.271393,-1.09501,-1.022082,'\'(-inf-6.266667]\''
-1.170449,-0.845501,-1.078774,-1.241335,-1.295941,-0.656052,-1.232209,-1.211056,-1.209273,-1.19405,-1.25585,-1.268566,-1.367159,-1.24096,-0.903606,-0.461522,-1.119518,-1.263712,-1.088701,-1.019769,'\'(-inf-6.266667]\''
-1.168662,-0.844997,-1.077637,-1.238984,-1.294262,-0.65559,-1.230842,-1.206686,-1.206819,-1.192847,-1.253372,-1.267273,-1.36547,-1.239781,-0.903411,-0.461297,-1.118754,-1.258802,-1.081783,-1.017966,'\'(-inf-6.266667]\''
-1.166874,-0.844357,-1.077069,-1.237809,-1.292004,-0.655474,-1.230842,-1.205594,-1.205592,-1.191358,-1.252133,-1.265979,-1.362092,-1.237423,-0.903275,-0.46103,-1.117022,-1.253041,-1.079733,-1.016057,'\'(-inf-6.266667]\''
-1.16598,-0.843651,-1.075932,-1.236633,-1.290081,-0.655416,-1.226741,-1.203409,-1.201912,-1.189897,-1.250895,-1.264685,-1.360403,-1.236244,-0.902998,-0.460846,-1.116067,-1.249453,-1.08079,-1.019191,'\'(-inf-6.266667]\''
-1.164193,-0.842977,-1.074796,-1.234283,-1.287639,-0.654954,-1.224007,-1.199039,-1.200685,-1.188294,-1.248417,-1.262098,-1.357025,-1.235065,-0.902614,-0.46058,-1.114363,-1.242905,-1.079541,-1.015148,'\'(-inf-6.266667]\''
-1.163299,-0.84217,-1.073659,-1.233107,-1.285746,-0.654434,-1.221273,-1.19467,-1.197004,-1.186948,-1.245939,-1.259511,-1.355336,-1.232707,-0.90224,-0.46017,-1.113503,-1.237554,-1.075377,-1.011483,'\'(-inf-6.266667]\''
-1.161511,-0.841429,-1.072523,-1.230757,-1.284586,-0.653625,-1.219905,-1.19467,-1.195778,-1.185401,-1.244701,-1.259511,-1.353647,-1.231528,-0.901888,-0.459883,-1.112617,-1.232549,-1.077235,-1.013665,'\'(-inf-6.266667]\''
-1.159724,-0.841009,-1.071954,-1.229582,-1.282389,-0.653741,-1.217171,-1.191392,-1.193324,-1.183683,-1.243462,-1.258217,-1.351958,-1.22917,-0.901521,-0.459617,-1.111403,-1.227386,-1.071118,-1.012051,'\'(-inf-6.266667]\''
-1.15883,-0.840571,-1.070249,-1.228406,-1.280954,-0.654261,-1.215804,-1.191392,-1.19087,-1.182423,-1.242223,-1.25563,-1.350269,-1.226812,-0.901113,-0.459494,-1.109548,-1.222696,-1.066282,-1.010952,'\'(-inf-6.266667]\''
-1.156149,-0.840151,-1.069113,-1.22488,-1.278298,-0.654376,-1.214437,-1.181561,-1.188417,-1.180532,-1.238506,-1.253042,-1.345202,-1.223275,-0.900739,-0.459351,-1.107748,-1.218037,-1.069645,-1.012177,'\'(-inf-6.266667]\''
-1.154361,-0.839932,-1.067976,-1.22253,-1.275795,-0.65403,-1.211703,-1.177191,-1.185963,-1.1789,-1.236029,-1.250455,-1.343513,-1.222096,-0.900402,-0.459208,-1.106221,-1.212843,-1.066538,-1.01131,'\'(-inf-6.266667]\''
-1.152574,-0.839797,-1.066839,-1.221354,-1.273506,-0.653452,-1.210336,-1.171729,-1.183509,-1.176895,-1.23479,-1.249161,-1.341824,-1.220917,-0.900102,-0.459187,-1.104284,-1.207429,-1.061381,-1.009854,'\'(-inf-6.266667]\''
-1.15168,-0.839461,-1.066271,-1.219004,-1.270728,-0.653394,-1.208969,-1.166267,-1.181056,-1.175549,-1.232312,-1.246574,-1.336757,-1.218559,-0.899925,-0.459085,-1.103043,-1.200315,-1.06436,-1.010821,'\'(-inf-6.266667]\''
-1.149893,-0.839292,-1.065135,-1.216653,-1.268195,-0.653279,-1.204867,-1.166267,-1.178602,-1.173573,-1.231074,-1.243987,-1.335068,-1.21738,-0.899692,-0.459003,-1.101338,-1.197671,-1.065353,-1.010732,'\'(-inf-6.266667]\''
-1.148105,-0.839191,-1.064566,-1.215478,-1.266608,-0.653221,-1.202133,-1.161898,-1.176148,-1.172198,-1.228596,-1.242693,-1.33169,-1.215022,-0.899494,-0.459003,-1.099797,-1.192697,-1.058307,-1.008944,'\'(-inf-6.266667]\''
-1.145424,-0.838855,-1.062861,-1.213127,-1.264196,-0.653221,-1.199399,-1.156436,-1.171241,-1.170337,-1.226118,-1.240106,-1.330001,-1.212664,-0.899346,-0.458921,-1.098038,-1.191784,-1.057346,-1.00682,'\'(-inf-6.266667]\''
-1.14453,-0.838636,-1.063998,-1.210777,-1.262212,-0.652874,-1.198032,-1.153159,-1.170014,-1.168389,-1.223641,-1.238812,-1.326623,-1.211485,-0.899197,-0.458757,-1.096442,-1.184891,-1.053342,-1.005106,'\'(-inf-6.266667]\''
-1.142743,-0.8383,-1.062861,-1.208426,-1.259679,-0.652181,-1.196665,-1.149882,-1.167561,-1.166757,-1.221163,-1.236225,-1.323245,-1.209127,-0.89907,-0.458614,-1.095542,-1.181711,-1.054239,-1.005238,'\'(-inf-6.266667]\''
-1.140955,-0.837879,-1.062293,-1.206076,-1.256993,-0.651488,-1.195298,-1.143327,-1.165107,-1.164838,-1.218685,-1.232344,-1.319867,-1.206769,-0.898978,-0.458552,-1.093974,-1.178217,-1.054944,-1.003787,'\'(-inf-6.266667]\''
-1.138274,-0.837593,-1.061156,-1.203725,-1.254886,-0.651719,-1.193931,-1.14005,-1.166334,-1.16312,-1.216208,-1.23105,-1.316489,-1.204411,-0.898682,-0.458081,-1.093769,-1.17529,-1.0503,-1.003298,'\'(-inf-6.266667]\''
-1.136486,-0.838148,-1.06002,-1.201374,-1.252536,-0.652412,-1.192564,-1.137865,-1.162653,-1.161373,-1.21373,-1.228463,-1.313111,-1.202053,-0.898512,-0.458327,-1.092433,-1.17189,-1.046873,-1.002551,'\'(-inf-6.266667]\''
-1.132911,-0.83798,-1.058883,-1.199024,-1.251071,-0.652354,-1.189829,-1.133496,-1.1602,-1.159511,-1.211252,-1.227169,-1.313111,-1.199695,-0.89841,-0.458183,-1.091464,-1.167011,-1.050876,-1.004055,'\'(-inf-6.266667]\''
-1.131124,-0.837795,-1.057178,-1.196673,-1.248049,-0.651777,-1.189829,-1.126941,-1.157746,-1.157506,-1.208775,-1.224582,-1.309734,-1.196158,-0.898341,-0.457979,-1.08961,-1.164398,-1.050268,-1.002168,'\'(-inf-6.266667]\''
-1.129336,-0.837273,-1.056042,-1.195498,-1.246157,-0.651603,-1.185728,-1.129126,-1.156519,-1.155731,-1.207536,-1.223288,-1.308045,-1.194979,-0.898314,-0.457876,-1.089678,-1.16465,-1.044887,-0.999865,'\'(-inf-6.266667]\''
-1.127549,-0.836651,-1.054905,-1.193147,-1.2446,-0.65143,-1.182994,-1.122572,-1.152839,-1.154041,-1.205058,-1.221994,-1.306356,-1.192621,-0.898382,-0.457794,-1.088191,-1.16465,-1.042229,-0.998824,'\'(-inf-6.266667]\''
-1.125761,-0.835994,-1.053768,-1.191972,-1.242402,-0.650794,-1.181627,-1.116017,-1.150385,-1.152409,-1.203819,-1.219407,-1.304667,-1.190263,-0.898267,-0.457712,-1.086446,-1.162446,-1.042421,-0.997446,'\'(-inf-6.266667]\''
-1.123974,-0.835018,-1.052632,-1.190797,-1.240815,-0.650679,-1.18026,-1.108371,-1.146704,-1.150862,-1.202581,-1.219407,-1.302978,-1.189084,-0.898147,-0.457323,-1.085,-1.163265,-1.03909,-0.997499,'\'(-inf-6.266667]\''
-1.122186,-0.833958,-1.051495,-1.188446,-1.238098,-0.65039,-1.176158,-1.109463,-1.144251,-1.148972,-1.200103,-1.21682,-1.2996,-1.186726,-0.897994,-0.456934,-1.084154,-1.159362,-1.035183,-0.996984,'\'(-inf-6.266667]\''
-1.120399,-0.833083,-1.050927,-1.186095,-1.235076,-0.65039,-1.18026,-1.105093,-1.145478,-1.146881,-1.197625,-1.214232,-1.296222,-1.183189,-0.89781,-0.456709,-1.0838,-1.156591,-1.040019,-0.995612,'\'(-inf-6.266667]\''
-1.118611,-0.832292,-1.04979,-1.183745,-1.232665,-0.649928,-1.18026,-1.100724,-1.144251,-1.144733,-1.195148,-1.211645,-1.294533,-1.180831,-0.897655,-0.456545,-1.082722,-1.155962,-1.045239,-0.999323,'\'(-inf-6.266667]\''
-1.116824,-0.831384,-1.048085,-1.181394,-1.229948,-0.649061,-1.172057,-1.101816,-1.138117,-1.142471,-1.19267,-1.209058,-1.291155,-1.178473,-0.897322,-0.456401,-1.082395,-1.154231,-1.037905,-0.994518,'\'(-inf-6.266667]\''
-1.115036,-0.830307,-1.047517,-1.180219,-1.228636,-0.648946,-1.166589,-1.094169,-1.133209,-1.140867,-1.19267,-1.207764,-1.291155,-1.176115,-0.897101,-0.456176,-1.081263,-1.149446,-1.027016,-0.990475,'\'(-inf-6.266667]\''
-1.114142,-0.828944,-1.04638,-1.180219,-1.226835,-0.649292,-1.162487,-1.0898,-1.130756,-1.139063,-1.191431,-1.20647,-1.289466,-1.176115,-0.896857,-0.455787,-1.079995,-1.148753,-1.02551,-0.988709,'\'(-inf-6.266667]\''
-1.114142,-0.827446,-1.045244,-1.179044,-1.22479,-0.649177,-1.162487,-1.086523,-1.128302,-1.137287,-1.190192,-1.203883,-1.287777,-1.176115,-0.896487,-0.4555,-1.078154,-1.146361,-1.025094,-0.988467,'\'(-inf-6.266667]\''
-1.113249,-0.826016,-1.044107,-1.177868,-1.222348,-0.648715,-1.159753,-1.082153,-1.124621,-1.135626,-1.188954,-1.202589,-1.284399,-1.174936,-0.896072,-0.455254,-1.076667,-1.142741,-1.020258,-0.985218,'\'(-inf-6.266667]\''
-1.112355,-0.824619,-1.04297,-1.175518,-1.219753,-0.648252,-1.157019,-1.075599,-1.122168,-1.133507,-1.186476,-1.200002,-1.281021,-1.172578,-0.89565,-0.454845,-1.07518,-1.139027,-1.020834,-0.986264,'\'(-inf-6.266667]\''
-1.109674,-0.823559,-1.041834,-1.173167,-1.216976,-0.647964,-1.154285,-1.072322,-1.119714,-1.131416,-1.183998,-1.197415,-1.279332,-1.17022,-0.895229,-0.454538,-1.074485,-1.136382,-1.014301,-0.982942,'\'(-inf-6.266667]\''
-1.10878,-0.822449,-1.040697,-1.171992,-1.215083,-0.647212,-1.152918,-1.069044,-1.118487,-1.129354,-1.18276,-1.196121,-1.277643,-1.169041,-0.894523,-0.454251,-1.073489,-1.134336,-1.017792,-0.98239,'\'(-inf-6.266667]\''
-1.106992,-0.821456,-1.040129,-1.170816,-1.213252,-0.64727,-1.150184,-1.064675,-1.114807,-1.127321,-1.181521,-1.194827,-1.275954,-1.167862,-0.894094,-0.454107,-1.072057,-1.132699,-1.013148,-0.98138,'\'(-inf-6.266667]\''
-1.106099,-0.820278,-1.038992,-1.169641,-1.212305,-0.647097,-1.150184,-1.061398,-1.11358,-1.125889,-1.181521,-1.194827,-1.275954,-1.166683,-0.893558,-0.453923,-1.070816,-1.127631,-1.004981,-0.978242,'\'(-inf-6.266667]\''
-1.105205,-0.819285,-1.040129,-1.168466,-1.211329,-0.646924,-1.147449,-1.058121,-1.111126,-1.124886,-1.180282,-1.193534,-1.274265,-1.165504,-0.892998,-0.45378,-1.070148,-1.125302,-1.002963,-0.976007,'\'(-inf-6.266667]\''
-1.104311,-0.818242,-1.039561,-1.167291,-1.210016,-0.646461,-1.148816,-1.057028,-1.111126,-1.12354,-1.179043,-1.193534,-1.274265,-1.164325,-0.892488,-0.453657,-1.070148,-1.121367,-0.998767,-0.973836,'\'(-inf-6.266667]\''
-1.103417,-0.817283,-1.038992,-1.166115,-1.207513,-0.64571,-1.140614,-1.054843,-1.104992,-1.121965,-1.176565,-1.190946,-1.269198,-1.163147,-0.892428,-0.453554,-1.068511,-1.114914,-0.993387,-0.973957,'\'(-inf-6.266667]\''
-1.10163,-0.816038,-1.038424,-1.16494,-1.204888,-0.645479,-1.13788,-1.047197,-1.101312,-1.120132,-1.175327,-1.189653,-1.269198,-1.161968,-0.891704,-0.453186,-1.068648,-1.108367,-0.993259,-0.975397,'\'(-inf-6.266667]\''
-1.100736,-0.814692,-1.037856,-1.162589,-1.202355,-0.646115,-1.132411,-1.043919,-1.097631,-1.118557,-1.172849,-1.187065,-1.26582,-1.160789,-0.890666,-0.452735,-1.067802,-1.103425,-0.991241,-0.973831,'\'(-inf-6.266667]\''
-1.099842,-0.813379,-1.037287,-1.162589,-1.201439,-0.645768,-1.129677,-1.040642,-1.093951,-1.117383,-1.172849,-1.187065,-1.26582,-1.15961,-0.889911,-0.452326,-1.066657,-1.097916,-0.977565,-0.968936,'\'(-inf-6.266667]\''
-1.098949,-0.812555,-1.036719,-1.161414,-1.200462,-0.645075,-1.126943,-1.036273,-1.091497,-1.116323,-1.17161,-1.185772,-1.264131,-1.15961,-0.889114,-0.452059,-1.064788,-1.093037,-0.975067,-0.968458,'\'(-inf-6.266667]\''
-1.098055,-0.81173,-1.036151,-1.160239,-1.199028,-0.644728,-1.124209,-1.032995,-1.089043,-1.115063,-1.170371,-1.184478,-1.262442,-1.157252,-0.888344,-0.451998,-1.062524,-1.087245,-0.970775,-0.965887,'\'(-inf-6.266667]\''
-1.097161,-0.810653,-1.035582,-1.159063,-1.198051,-0.644497,-1.122842,-1.03518,-1.089043,-1.113774,-1.169132,-1.184478,-1.260753,-1.157252,-0.887746,-0.451854,-1.061679,-1.080036,-0.967989,-0.964599,'\'(-inf-6.266667]\''
-1.096267,-0.809004,-1.035582,-1.157888,-1.195731,-0.643804,-1.121475,-1.032995,-1.087817,-1.112142,-1.167894,-1.181891,-1.257375,-1.154894,-0.886871,-0.451404,-1.06082,-1.077801,-0.961615,-0.963537,'\'(-inf-6.266667]\''
-1.095374,-0.807456,-1.035014,-1.156713,-1.193838,-0.643804,-1.116006,-1.029718,-1.082909,-1.110653,-1.166655,-1.181891,-1.257375,-1.153715,-0.885947,-0.450974,-1.05801,-1.071694,-0.956939,-0.961634,'\'(-inf-6.266667]\''
-1.09448,-0.805841,-1.035014,-1.154362,-1.190908,-0.643746,-1.113272,-1.025349,-1.079229,-1.109221,-1.164177,-1.17801,-1.252308,-1.152536,-0.885141,-0.450503,-1.055801,-1.069585,-0.955434,-0.957828,'\'(-inf-6.266667]\''
-1.093586,-0.804394,-1.032741,-1.153187,-1.190176,-0.643053,-1.109171,-1.019887,-1.075548,-1.108075,-1.162938,-1.176716,-1.250619,-1.151357,-0.884332,-0.450134,-1.054069,-1.061621,-0.940957,-0.954931,'\'(-inf-6.266667]\''
-1.092692,-0.803216,-1.032741,-1.150836,-1.188222,-0.643573,-1.107804,-1.015517,-1.074321,-1.106471,-1.160461,-1.174129,-1.247241,-1.150178,-0.883451,-0.449847,-1.051996,-1.05457,-0.937466,-0.953527,'\'(-inf-6.266667]\''
-1.091799,-0.801802,-1.032172,-1.149661,-1.186116,-0.643053,-1.102335,-1.00787,-1.071868,-1.104925,-1.159222,-1.172835,-1.245552,-1.148999,-0.882864,-0.449274,-1.050264,-1.047928,-0.934039,-0.948785,'\'(-inf-6.266667]\''
-1.090905,-0.800456,-1.031604,-1.14731,-1.184132,-0.642879,-1.098234,-0.996947,-1.065734,-1.104409,-1.156744,-1.168954,-1.240485,-1.14782,-0.881827,-0.448803,-1.046418,-1.042703,-0.925264,-0.945105,'\'(-inf-6.266667]\''
-1.090011,-0.799817,-1.031036,-1.143785,-1.180652,-0.643688,-1.096867,-1.005686,-1.065734,-1.102805,-1.153028,-1.165073,-1.233729,-1.146641,-0.880833,-0.448659,-1.043145,-1.036659,-0.919691,-0.94193,'\'(-inf-6.266667]\''
-1.088224,-0.799615,-1.030468,-1.139083,-1.175921,-0.643226,-1.0955,-1.003501,-1.06328,-1.100829,-1.148073,-1.159898,-1.225284,-1.144283,-0.879697,-0.448762,-1.039981,-1.031371,-0.918506,-0.940247,'\'(-inf-6.266667]\''
-1.08733,-0.798874,-1.029899,-1.135557,-1.170945,-0.64236,-1.091398,-1.001316,-1.059599,-1.097851,-1.144356,-1.154724,-1.218528,-1.143104,-0.878654,-0.448557,-1.036844,-1.027688,-0.922093,-0.941882,'\'(-inf-6.266667]\''
-1.086436,-0.79768,-1.028763,-1.133207,-1.167618,-0.642071,-1.088664,-1.000224,-1.057146,-1.095703,-1.14064,-1.150842,-1.211772,-1.140746,-0.877797,-0.448106,-1.032943,-1.02369,-0.920171,-0.941882,'\'(-inf-6.266667]\''
-1.084649,-0.796586,-1.028194,-1.129681,-1.163742,-0.641724,-1.08593,-0.995854,-1.053465,-1.093154,-1.138162,-1.146961,-1.206705,-1.138388,-0.876837,-0.447737,-1.029343,-1.019409,-0.922445,-0.939848,'\'(-inf-6.266667]\''
-1.083755,-0.796047,-1.028194,-1.129681,-1.161269,-0.640626,-1.081829,-0.994762,-1.049785,-1.090605,-1.136923,-1.146961,-1.206705,-1.138388,-0.875858,-0.447574,-1.026288,-1.019755,-0.915207,-0.939779,'\'(-inf-6.266667]\''
-1.081074,-0.79566,-1.027626,-1.120279,-1.153364,-0.640511,-1.079095,-0.994762,-1.048558,-1.087598,-1.127013,-1.135318,-1.186437,-1.13603,-0.874916,-0.447533,-1.023683,-1.012893,-0.926577,-0.939112,'\'(-inf-6.266667]\''
-1.078392,-0.795576,-1.026489,-1.117928,-1.150616,-0.64028,-1.074993,-0.986023,-1.043651,-1.084247,-1.124535,-1.134025,-1.186437,-1.132493,-0.87402,-0.447492,-1.020928,-1.009147,-0.913285,-0.936099,'\'(-inf-6.266667]\''
-1.073923,-0.795021,-1.022511,-1.113227,-1.146679,-0.639529,-1.072259,-0.982745,-1.041197,-1.081641,-1.120819,-1.130144,-1.18137,-1.127777,-0.873179,-0.447266,-1.018228,-1.001655,-0.919595,-0.934837,'\'(-inf-6.266667]\''
-1.071242,-0.793961,-1.021943,-1.109701,-1.14094,-0.639066,-1.069525,-0.979468,-1.037517,-1.078892,-1.114624,-1.124969,-1.172925,-1.12424,-0.872294,-0.446857,-1.013618,-0.994258,-0.917962,-0.933018,'\'(-inf-6.266667]\''
-1.069455,-0.79285,-1.020806,-1.105,-1.135141,-0.638027,-1.066791,-0.978376,-1.03629,-1.075283,-1.110908,-1.119794,-1.166169,-1.120703,-0.871461,-0.446468,-1.007604,-0.992652,-0.925712,-0.939001,'\'(-inf-6.266667]\''
-1.066773,-0.792144,-1.01967,-1.099123,-1.128334,-0.637853,-1.065424,-0.978376,-1.03629,-1.07239,-1.104714,-1.112032,-1.156035,-1.115987,-0.870936,-0.446283,-1.00249,-0.988277,-0.926225,-0.936189,'\'(-inf-6.266667]\''
-1.064986,-0.791386,-1.018533,-1.093247,-1.11997,-0.638604,-1.061322,-0.971821,-1.030156,-1.068868,-1.097281,-1.10427,-1.142523,-1.111271,-0.870102,-0.445976,-0.998085,-0.983713,-0.931445,-0.934837,'\'(-inf-6.266667]\''
-1.061411,-0.790394,-1.01626,-1.08737,-1.111546,-0.638315,-1.058588,-0.969637,-1.027702,-1.064801,-1.091087,-1.096508,-1.132389,-1.105376,-0.869204,-0.445689,-0.992207,-0.981415,-0.930036,-0.931546,'\'(-inf-6.266667]\''
-1.059623,-0.789922,-1.014555,-1.083844,-1.106357,-0.637102,-1.057221,-0.96636,-1.026475,-1.061336,-1.088609,-1.093921,-1.129011,-1.10066,-0.868196,-0.445587,-0.988156,-0.978172,-0.927025,-0.92845,'\'(-inf-6.266667]\''
-1.055155,-0.789636,-1.012282,-1.077968,-1.099061,-0.636467,-1.044917,-0.96199,-1.01666,-1.05704,-1.081176,-1.086159,-1.118877,-1.094765,-0.867412,-0.445505,-0.98176,-0.971814,-0.924399,-0.925763,'\'(-inf-6.266667]\''
-1.05158,-0.789098,-1.008303,-1.073267,-1.092712,-0.636004,-1.038082,-0.955436,-1.010526,-1.052858,-1.07746,-1.080984,-1.112121,-1.08887,-0.866766,-0.445321,-0.975132,-0.968697,-0.926545,-0.925185,'\'(-inf-6.266667]\''
-1.047111,-0.788492,-1.005462,-1.069741,-1.087157,-0.635138,-1.03398,-0.954343,-1.006846,-1.049622,-1.072505,-1.077103,-1.108743,-1.082975,-0.866034,-0.445157,-0.968245,-0.963629,-0.923566,-0.921353,'\'(-inf-6.266667]\''
-1.042642,-0.788038,-1.002052,-1.062689,-1.079221,-0.635196,-1.027145,-0.93905,-0.999485,-1.045441,-1.065072,-1.068048,-1.095231,-1.075901,-0.865588,-0.444993,-0.963076,-0.962087,-0.916776,-0.914471,'\'(-inf-6.266667]\''
-1.038173,-0.787398,-0.99921,-1.054462,-1.071254,-0.635022,-1.021677,-0.929218,-0.993351,-1.041174,-1.057639,-1.058992,-1.083408,-1.070006,-0.865242,-0.444809,-0.95567,-0.95853,-0.925936,-0.920422,'\'(-inf-6.266667]\''
-1.034598,-0.78649,-0.996937,-1.049761,-1.065699,-0.634791,-1.013474,-0.930311,-0.987217,-1.037966,-1.051445,-1.053817,-1.074963,-1.06529,-0.864876,-0.444542,-0.948592,-0.95299,-0.928435,-0.922698,'\'(-inf-6.266667]\''
-1.031023,-0.785598,-0.995232,-1.043884,-1.059838,-0.634098,-1.012107,-0.924849,-0.984763,-1.034243,-1.04525,-1.047349,-1.066518,-1.060574,-0.864541,-0.444255,-0.942414,-0.953619,-0.938011,-0.923955,'\'(6.266667-10.533333]\''
-1.027448,-0.785009,-0.992959,-1.039183,-1.053611,-0.633116,-1.008006,-0.919387,-0.979856,-1.030119,-1.040295,-1.040881,-1.058073,-1.055858,-0.864219,-0.444153,-0.935963,-0.958121,-0.93974,-0.927609,'\'(6.266667-10.533333]\''
-1.024767,-0.784302,-0.990117,-1.034482,-1.048697,-0.633636,-1.005271,-0.916109,-0.976175,-1.025565,-1.03534,-1.037,-1.051317,-1.051143,-0.864084,-0.444215,-0.933781,-0.959065,-0.93247,-0.918955,'\'(6.266667-10.533333]\''
-1.021192,-0.78299,-0.987276,-1.030956,-1.044362,-0.634907,-0.999803,-0.917202,-0.972495,-1.02167,-1.032862,-1.034412,-1.047939,-1.047606,-0.863741,-0.443989,-0.934709,-0.956326,-0.924623,-0.915401,'\'(6.266667-10.533333]\''
-1.020298,-0.781156,-0.984434,-1.028605,-1.041646,-0.634791,-0.992968,-0.899724,-0.96636,-1.019236,-1.030385,-1.031825,-1.044561,-1.044069,-0.863431,-0.443702,-0.936113,-0.957334,-0.926545,-0.921011,'\'(6.266667-10.533333]\''
-1.017617,-0.779456,-0.982161,-1.026255,-1.038929,-0.634156,-0.992968,-0.900816,-0.965134,-1.01663,-1.027907,-1.029238,-1.042872,-1.040532,-0.863171,-0.443743,-0.935991,-0.958058,-0.92552,-0.917657,'\'(6.266667-10.533333]\''
-1.015829,-0.777302,-0.980456,-1.025079,-1.035694,-0.63404,-0.990233,-0.899724,-0.96268,-1.013394,-1.026668,-1.02665,-1.037805,-1.039353,-0.863123,-0.443129,-0.937627,-0.952518,-0.907392,-0.906296,'\'(6.266667-10.533333]\''
-1.013148,-0.774762,-0.978183,-1.020378,-1.030627,-0.633231,-0.986132,-0.893169,-0.958999,-1.009756,-1.021713,-1.022769,-1.031049,-1.035816,-0.863049,-0.442474,-0.938309,-0.953273,-0.906079,-0.90658,'\'(6.266667-10.533333]\''
-1.011361,-0.772725,-0.97591,-1.014502,-1.023637,-0.632596,-0.982031,-0.890984,-0.956546,-1.005833,-1.015519,-1.013714,-1.019226,-1.0311,-0.863062,-0.442207,-0.937613,-0.94427,-0.902332,-0.902568,'\'(6.266667-10.533333]\''
-1.008679,-0.771379,-0.974205,-1.012151,-1.020065,-0.632827,-0.976562,-0.892077,-0.951638,-1.003828,-1.013041,-1.01242,-1.017537,-1.028742,-0.863005,-0.442125,-0.936127,-0.938352,-0.89993,-0.899756,'\'(6.266667-10.533333]\''
-1.005104,-0.769966,-0.971931,-1.00745,-1.015975,-0.632769,-0.972461,-0.889892,-0.949185,-0.999733,-1.008086,-1.005952,-1.01247,-1.024026,-0.862891,-0.441798,-0.934218,-0.939391,-0.89756,-0.89924,'\'(6.266667-10.533333]\''
-1.002423,-0.768906,-0.969658,-1.003924,-1.011152,-0.63248,-0.969727,-0.892077,-0.946731,-0.996554,-1.004369,-1.000777,-1.005714,-1.020489,-0.862477,-0.441859,-0.932145,-0.932718,-0.897624,-0.89749,'\'(6.266667-10.533333]\''
-0.997061,-0.767375,-0.970227,-0.999223,-1.00578,-0.631671,-0.965626,-0.885522,-0.943051,-0.991742,-0.999414,-0.996896,-1.000647,-1.015773,-0.862183,-0.441572,-0.932431,-0.929979,-0.890546,-0.896386,'\'(6.266667-10.533333]\''
-0.994379,-0.76581,-0.967385,-0.995697,-1.00114,-0.630516,-0.961524,-0.882245,-0.93937,-0.988134,-0.995698,-0.993015,-0.997269,-1.012236,-0.86178,-0.441511,-0.932172,-0.924565,-0.881546,-0.892217,'\'(6.266667-10.533333]\''
-0.989017,-0.76406,-0.965112,-0.993346,-0.997935,-0.631209,-0.956056,-0.881153,-0.934463,-0.985298,-0.99322,-0.990427,-0.99558,-1.008699,-0.861239,-0.441245,-0.929172,-0.915468,-0.87213,-0.885456,'\'(6.266667-10.533333]\''
-0.986335,-0.761754,-0.96227,-0.992171,-0.996837,-0.63196,-0.950588,-0.877876,-0.929555,-0.982692,-0.991981,-0.989134,-0.997269,-1.006341,-0.860531,-0.440753,-0.926362,-0.908574,-0.872931,-0.887411,'\'(6.266667-10.533333]\''
-0.983654,-0.760122,-0.959429,-0.990996,-0.995554,-0.631556,-0.945119,-0.872414,-0.925875,-0.980172,-0.991981,-0.98784,-0.998958,-1.002804,-0.85958,-0.440364,-0.923484,-0.904009,-0.868158,-0.885582,'\'(6.266667-10.533333]\''
-0.981867,-0.758305,-0.957724,-0.98982,-0.993631,-0.630516,-0.945119,-0.864767,-0.923421,-0.978139,-0.990742,-0.985253,-0.997269,-1.000446,-0.858501,-0.439954,-0.919939,-0.898532,-0.861273,-0.880125,'\'(6.266667-10.533333]\''
-0.980973,-0.756403,-0.95545,-0.986294,-0.989572,-0.630227,-0.936917,-0.856028,-0.917287,-0.975303,-0.987026,-0.982665,-0.992202,-0.998088,-0.857894,-0.439708,-0.916461,-0.895951,-0.868223,-0.882412,'\'(6.266667-10.533333]\''
-0.978292,-0.755478,-0.953177,-0.982768,-0.985817,-0.629765,-0.932815,-0.860397,-0.914834,-0.972239,-0.984548,-0.978784,-0.988824,-0.994551,-0.857517,-0.439647,-0.910924,-0.893748,-0.857205,-0.876592,'\'(6.266667-10.533333]\''
-0.974717,-0.754014,-0.950336,-0.979243,-0.981452,-0.629072,-0.927347,-0.850566,-0.908699,-0.968859,-0.980832,-0.974903,-0.983757,-0.991014,-0.856964,-0.439442,-0.907269,-0.888554,-0.854387,-0.874458,'\'(6.266667-10.533333]\''
-0.972035,-0.751928,-0.948631,-0.975717,-0.976691,-0.629129,-0.920512,-0.846196,-0.902565,-0.964535,-0.977115,-0.971022,-0.97869,-0.987477,-0.856308,-0.439073,-0.904869,-0.885185,-0.852657,-0.876014,'\'(6.266667-10.533333]\''
-0.96846,-0.749891,-0.946357,-0.972191,-0.971807,-0.629072,-0.915043,-0.842919,-0.897658,-0.96107,-0.973399,-0.967141,-0.973623,-0.982761,-0.855729,-0.438951,-0.899659,-0.882541,-0.849006,-0.875987,'\'(6.266667-10.533333]\''
-0.965779,-0.747502,-0.945221,-0.968665,-0.967228,-0.628494,-0.91641,-0.835272,-0.896431,-0.958292,-0.969682,-0.961967,-0.968556,-0.979224,-0.854996,-0.438459,-0.89689,-0.878638,-0.847469,-0.871671,'\'(6.266667-10.533333]\''
-0.963098,-0.745281,-0.941243,-0.966314,-0.96323,-0.627512,-0.908208,-0.833088,-0.890297,-0.954912,-0.967205,-0.958086,-0.966867,-0.975687,-0.854311,-0.438131,-0.893917,-0.873633,-0.841768,-0.870457,'\'(6.266667-10.533333]\''
-0.960417,-0.742959,-0.939538,-0.962788,-0.958285,-0.626356,-0.902739,-0.831995,-0.88539,-0.950416,-0.963488,-0.955498,-0.9618,-0.97215,-0.853613,-0.437599,-0.891462,-0.868785,-0.828636,-0.862113,'\'(6.266667-10.533333]\''
-0.956842,-0.740738,-0.937264,-0.959262,-0.953126,-0.626703,-0.894537,-0.822164,-0.879255,-0.94675,-0.959772,-0.950324,-0.956733,-0.967434,-0.852975,-0.437169,-0.887357,-0.863025,-0.831519,-0.864248,'\'(6.266667-10.533333]\''
-0.95416,-0.738651,-0.93556,-0.952211,-0.946136,-0.627801,-0.89317,-0.822164,-0.875575,-0.942368,-0.952339,-0.942562,-0.94491,-0.963897,-0.851823,-0.436513,-0.883402,-0.858618,-0.825946,-0.857361,'\'(6.266667-10.533333]\''
-0.950585,-0.736817,-0.93215,-0.948685,-0.941619,-0.627281,-0.887701,-0.821071,-0.871894,-0.938015,-0.948622,-0.938681,-0.941532,-0.96036,-0.850687,-0.436022,-0.879474,-0.852039,-0.825273,-0.854832,'\'(6.266667-10.533333]\''
-0.94701,-0.734949,-0.929308,-0.943984,-0.936368,-0.626183,-0.880866,-0.818886,-0.86576,-0.933748,-0.943667,-0.933506,-0.933087,-0.956823,-0.849318,-0.435591,-0.874633,-0.84568,-0.823864,-0.850048,'\'(6.266667-10.533333]\''
-0.945223,-0.733368,-0.926467,-0.941633,-0.931759,-0.625952,-0.875397,-0.818886,-0.86208,-0.930426,-0.94119,-0.929625,-0.929709,-0.954465,-0.847904,-0.435346,-0.871237,-0.837873,-0.821078,-0.85142,'\'(6.266667-10.533333]\''
-0.941648,-0.731887,-0.923625,-0.938107,-0.926631,-0.62549,-0.868562,-0.813424,-0.855946,-0.926273,-0.937473,-0.925744,-0.924642,-0.950928,-0.846735,-0.435018,-0.868305,-0.82928,-0.821462,-0.849764,'\'(6.266667-10.533333]\''
-0.937179,-0.730389,-0.92192,-0.934581,-0.92187,-0.624161,-0.863094,-0.812332,-0.851038,-0.921948,-0.933757,-0.923157,-0.921264,-0.946212,-0.845409,-0.434731,-0.865973,-0.820277,-0.813263,-0.846168,'\'(6.266667-10.533333]\''
-0.934498,-0.728656,-0.919647,-0.931055,-0.917566,-0.624103,-0.858992,-0.810147,-0.848585,-0.917996,-0.931279,-0.920569,-0.917886,-0.943854,-0.843916,-0.434301,-0.862059,-0.813257,-0.81384,-0.846441,'\'(6.266667-10.533333]\''
-0.931816,-0.727108,-0.916805,-0.928705,-0.914055,-0.623988,-0.853524,-0.803593,-0.843677,-0.914216,-0.927563,-0.917982,-0.914508,-0.940318,-0.842827,-0.43385,-0.857272,-0.802649,-0.810669,-0.845053,'\'(6.266667-10.533333]\''
-0.929135,-0.725795,-0.915669,-0.925179,-0.909721,-0.623237,-0.848055,-0.799223,-0.837543,-0.911151,-0.925085,-0.915395,-0.91113,-0.936781,-0.841304,-0.433461,-0.855267,-0.795315,-0.802117,-0.838724,'\'(6.266667-10.533333]\''
-0.92556,-0.724382,-0.914532,-0.920478,-0.904349,-0.622139,-0.843954,-0.797039,-0.833863,-0.907543,-0.918891,-0.908926,-0.902685,-0.933244,-0.839846,-0.433011,-0.851135,-0.786469,-0.79584,-0.836153,'\'(6.266667-10.533333]\''
-0.922879,-0.723053,-0.912259,-0.916952,-0.89977,-0.62081,-0.839853,-0.792669,-0.831409,-0.90465,-0.916413,-0.905045,-0.899307,-0.929707,-0.838573,-0.43254,-0.847343,-0.779009,-0.79379,-0.834655,'\'(6.266667-10.533333]\''
-0.919304,-0.721471,-0.910554,-0.91225,-0.894184,-0.620637,-0.828916,-0.787207,-0.824048,-0.899839,-0.911458,-0.902458,-0.892551,-0.924991,-0.837073,-0.431823,-0.84137,-0.773311,-0.804904,-0.841142,'\'(6.266667-10.533333]\''
-0.915729,-0.720495,-0.907144,-0.908725,-0.889758,-0.621503,-0.824815,-0.781745,-0.819141,-0.895342,-0.907741,-0.897283,-0.887484,-0.922633,-0.835597,-0.431638,-0.838028,-0.764655,-0.789915,-0.833535,'\'(6.266667-10.533333]\''
-0.912154,-0.719368,-0.905439,-0.904023,-0.883562,-0.621272,-0.822081,-0.773006,-0.813007,-0.891304,-0.901547,-0.892109,-0.880728,-0.917917,-0.834079,-0.43129,-0.831632,-0.754708,-0.779506,-0.825402,'\'(6.266667-10.533333]\''
-0.907685,-0.717988,-0.902597,-0.898147,-0.876267,-0.620059,-0.815245,-0.768636,-0.804419,-0.886436,-0.895353,-0.88564,-0.870594,-0.913201,-0.83248,-0.430696,-0.824854,-0.743911,-0.773164,-0.816964,'\'(-inf-6.266667]\''
-0.90411,-0.716288,-0.900324,-0.891095,-0.869338,-0.619424,-0.811144,-0.758805,-0.799511,-0.882111,-0.889159,-0.879172,-0.86046,-0.908485,-0.830698,-0.429672,-0.820135,-0.735317,-0.768937,-0.81474,'\'(-inf-6.266667]\''
-0.899641,-0.714942,-0.898051,-0.885219,-0.862958,-0.618672,-0.804308,-0.753343,-0.79215,-0.878102,-0.881726,-0.87141,-0.850326,-0.90259,-0.828922,-0.429262,-0.814871,-0.726346,-0.765478,-0.80871,'\'(-inf-6.266667]\''
-0.895172,-0.714,-0.895778,-0.879342,-0.857586,-0.617459,-0.797473,-0.748973,-0.786016,-0.873806,-0.875532,-0.867529,-0.841881,-0.896695,-0.827275,-0.429119,-0.81003,-0.720302,-0.770538,-0.810997,'\'(-inf-6.266667]\''
-0.890704,-0.712418,-0.892936,-0.874641,-0.85258,-0.617748,-0.793372,-0.742419,-0.781109,-0.869739,-0.870577,-0.862354,-0.836814,-0.891979,-0.825399,-0.428709,-0.804452,-0.713849,-0.760962,-0.806344,'\'(-inf-6.266667]\''
-0.885341,-0.710483,-0.890663,-0.867589,-0.846933,-0.61717,-0.785169,-0.735865,-0.774975,-0.865214,-0.864383,-0.85718,-0.82668,-0.884905,-0.823828,-0.428177,-0.799037,-0.711708,-0.762691,-0.804683,'\'(-inf-6.266667]\''
-0.880872,-0.709255,-0.887821,-0.860537,-0.838966,-0.616362,-0.778334,-0.73368,-0.767614,-0.859142,-0.85695,-0.850711,-0.816546,-0.877831,-0.821893,-0.427952,-0.792273,-0.704437,-0.760866,-0.7983,'\'(-inf-6.266667]\''
-0.876404,-0.70811,-0.88498,-0.855836,-0.833258,-0.614571,-0.770131,-0.728218,-0.76148,-0.855247,-0.850756,-0.844243,-0.808101,-0.871936,-0.820154,-0.427521,-0.785795,-0.694836,-0.75699,-0.792712,'\'(-inf-6.266667]\''
-0.874616,-0.706949,-0.883275,-0.851135,-0.828527,-0.61226,-0.763296,-0.723848,-0.755346,-0.852154,-0.8458,-0.839068,-0.799656,-0.868399,-0.818525,-0.427132,-0.778935,-0.68854,-0.750489,-0.787802,'\'(-inf-6.266667]\''
-0.870147,-0.706007,-0.879297,-0.844083,-0.820835,-0.612491,-0.75646,-0.718386,-0.751665,-0.848088,-0.839606,-0.831306,-0.789522,-0.863683,-0.817684,-0.426866,-0.77378,-0.683661,-0.754396,-0.790115,'\'(-inf-6.266667]\''
-0.864785,-0.704964,-0.877023,-0.835856,-0.815371,-0.614051,-0.750992,-0.70637,-0.744304,-0.846484,-0.829696,-0.82225,-0.777699,-0.856609,-0.816731,-0.4266,-0.768106,-0.677271,-0.749144,-0.786966,'\'(-inf-6.266667]\''
-0.860316,-0.703281,-0.874182,-0.827629,-0.807313,-0.613646,-0.744156,-0.71074,-0.736943,-0.841959,-0.821024,-0.813195,-0.762499,-0.848356,-0.815594,-0.426067,-0.763715,-0.670661,-0.748087,-0.779379,'\'(-inf-6.266667]\''
-0.854953,-0.700875,-0.871909,-0.819402,-0.796477,-0.612433,-0.74689,-0.699816,-0.736943,-0.834198,-0.812352,-0.804139,-0.747298,-0.838924,-0.814199,-0.424941,-0.756118,-0.671353,-0.754204,-0.780263,'\'(-inf-6.266667]\''
-0.848697,-0.699512,-0.869067,-0.809999,-0.78561,-0.612375,-0.734587,-0.691076,-0.725902,-0.826093,-0.801203,-0.79379,-0.732097,-0.828314,-0.812788,-0.424613,-0.749777,-0.6632,-0.751161,-0.776299,'\'(-inf-6.266667]\''
-0.843335,-0.697358,-0.866226,-0.800597,-0.77685,-0.611566,-0.729118,-0.689984,-0.720994,-0.820393,-0.792531,-0.784734,-0.718585,-0.818882,-0.810874,-0.423835,-0.742508,-0.655992,-0.748375,-0.774643,'\'(-inf-6.266667]\''
-0.836185,-0.695373,-0.862816,-0.791194,-0.7687,-0.610295,-0.725017,-0.682337,-0.716087,-0.815783,-0.782621,-0.775678,-0.705073,-0.808271,-0.808539,-0.423056,-0.731884,-0.652624,-0.749432,-0.776314,'\'(-inf-6.266667]\''
-0.828141,-0.693387,-0.859974,-0.782967,-0.760459,-0.610006,-0.719549,-0.677968,-0.71118,-0.809396,-0.77271,-0.767916,-0.69325,-0.79766,-0.806924,-0.422729,-0.727151,-0.646737,-0.73771,-0.761994,'\'(-inf-6.266667]\''
-0.821885,-0.692125,-0.857133,-0.77474,-0.750874,-0.609429,-0.71408,-0.668136,-0.705046,-0.803038,-0.762799,-0.760154,-0.681427,-0.789407,-0.805233,-0.422626,-0.724574,-0.6468,-0.735019,-0.75803,'\'(-inf-6.266667]\''
-0.813841,-0.691065,-0.854291,-0.765338,-0.741931,-0.608331,-0.708612,-0.669229,-0.701365,-0.796451,-0.754128,-0.753686,-0.669604,-0.779975,-0.803557,-0.422319,-0.717182,-0.640379,-0.738767,-0.760937,'\'(-inf-6.266667]\''
-0.804903,-0.690139,-0.850881,-0.755935,-0.734269,-0.607002,-0.70451,-0.660489,-0.695231,-0.79184,-0.744217,-0.74463,-0.657781,-0.769364,-0.802209,-0.422319,-0.712872,-0.634618,-0.73598,-0.755569,'\'(-inf-6.266667]\''
-0.796859,-0.688827,-0.846335,-0.745358,-0.724929,-0.605327,-0.696308,-0.655028,-0.68787,-0.785597,-0.733068,-0.735575,-0.644269,-0.758753,-0.800846,-0.422114,-0.708385,-0.632226,-0.739247,-0.754402,'\'(-inf-6.266667]\''
-0.787028,-0.687313,-0.841788,-0.732429,-0.713177,-0.605731,-0.693574,-0.665951,-0.689097,-0.780184,-0.718202,-0.721344,-0.624001,-0.744605,-0.799464,-0.421295,-0.702371,-0.627535,-0.730472,-0.745738,'\'(6.266667-10.533333]\''
-0.778091,-0.68531,-0.836673,-0.720676,-0.700906,-0.606944,-0.685371,-0.646288,-0.678055,-0.771793,-0.707053,-0.709701,-0.610489,-0.731636,-0.797802,-0.420414,-0.696779,-0.622562,-0.739663,-0.749208,'\'(6.266667-10.533333]\''
-0.766472,-0.684435,-0.832695,-0.707748,-0.686835,-0.606309,-0.675801,-0.637549,-0.670694,-0.764146,-0.692187,-0.694177,-0.59191,-0.71631,-0.796701,-0.420762,-0.69101,-0.617305,-0.748567,-0.755438,'\'(6.266667-10.533333]\''
-0.755747,-0.684031,-0.829285,-0.698346,-0.680791,-0.604634,-0.673067,-0.629902,-0.665787,-0.75985,-0.682276,-0.687709,-0.583465,-0.706878,-0.795743,-0.421704,-0.681914,-0.61208,-0.762371,-0.760848,'\'(6.266667-10.533333]\''
-0.746809,-0.682332,-0.825875,-0.688943,-0.671725,-0.604634,-0.666232,-0.623348,-0.658426,-0.751946,-0.672366,-0.679947,-0.57502,-0.697446,-0.79538,-0.4215,-0.677877,-0.61699,-0.767592,-0.760606,'\'(6.266667-10.533333]\''
-0.734297,-0.679488,-0.823034,-0.679541,-0.664308,-0.604056,-0.655295,-0.615701,-0.647385,-0.745903,-0.662455,-0.674772,-0.568264,-0.686835,-0.794971,-0.420619,-0.674686,-0.618658,-0.762595,-0.755065,'\'(6.266667-10.533333]\''
-0.738765,-0.676745,-0.820192,-0.678366,-0.65512,-0.603478,-0.647092,-0.610239,-0.64125,-0.738657,-0.661216,-0.66701,-0.55813,-0.688014,-0.794077,-0.419615,-0.669776,-0.618375,-0.753403,-0.746532,'\'(6.266667-10.533333]\''
-0.738765,-0.674053,-0.817919,-0.671314,-0.6452,-0.604345,-0.636156,-0.600408,-0.631436,-0.732385,-0.655022,-0.657954,-0.54124,-0.683298,-0.793274,-0.41855,-0.66623,-0.615322,-0.752122,-0.742389,'\'(6.266667-10.533333]\''
-0.734297,-0.67195,-0.813941,-0.663087,-0.634089,-0.603767,-0.627953,-0.594946,-0.624075,-0.723822,-0.645112,-0.646311,-0.526039,-0.675045,-0.792569,-0.417403,-0.661893,-0.613968,-0.751898,-0.741033,'\'(6.266667-10.533333]\''
-0.725359,-0.670132,-0.810531,-0.653684,-0.624383,-0.6029,-0.617016,-0.586207,-0.61426,-0.715287,-0.635201,-0.639843,-0.514216,-0.664434,-0.79137,-0.416543,-0.657897,-0.607798,-0.738414,-0.731191,'\'(6.266667-10.533333]\''
-0.715528,-0.668281,-0.808258,-0.643107,-0.614432,-0.602265,-0.604712,-0.577468,-0.604445,-0.707555,-0.624052,-0.630787,-0.502393,-0.655002,-0.790123,-0.416195,-0.654188,-0.603203,-0.741457,-0.727653,'\'(6.266667-10.533333]\''
-0.705696,-0.667608,-0.805416,-0.633704,-0.606434,-0.601456,-0.597877,-0.570913,-0.597084,-0.701426,-0.614141,-0.623025,-0.493948,-0.644391,-0.789173,-0.416645,-0.631453,-0.59889,-0.733738,-0.727122,'\'(6.266667-10.533333]\''
-0.698546,-0.666414,-0.80087,-0.624302,-0.59453,-0.602785,-0.589674,-0.561082,-0.588497,-0.69209,-0.60423,-0.611382,-0.482125,-0.634959,-0.78833,-0.416072,-0.627184,-0.595113,-0.73345,-0.716844,'\'(6.266667-10.533333]\''
-0.69229,-0.664428,-0.79746,-0.614899,-0.581863,-0.603998,-0.584206,-0.55562,-0.584816,-0.684701,-0.593081,-0.595858,-0.465235,-0.624348,-0.787547,-0.415355,-0.620652,-0.591776,-0.736204,-0.711035,'\'(6.266667-10.533333]\''
-0.686034,-0.661416,-0.793482,-0.607848,-0.573041,-0.603536,-0.576003,-0.550158,-0.575002,-0.678572,-0.585648,-0.586803,-0.45679,-0.616095,-0.786592,-0.414495,-0.616792,-0.591146,-0.733002,-0.708285,'\'(6.266667-10.533333]\''
-0.67799,-0.657613,-0.788935,-0.601971,-0.567486,-0.602034,-0.565067,-0.544696,-0.568867,-0.673016,-0.580693,-0.581628,-0.455101,-0.610201,-0.785582,-0.412774,-0.615387,-0.587212,-0.736941,-0.711219,'\'(6.266667-10.533333]\''
-0.668159,-0.656772,-0.784957,-0.594919,-0.561747,-0.601572,-0.558231,-0.537049,-0.56396,-0.666916,-0.57326,-0.576453,-0.448345,-0.600769,-0.78409,-0.413327,-0.610109,-0.586708,-0.736429,-0.714541,'\'(6.266667-10.533333]\''
-0.658327,-0.655745,-0.779842,-0.585517,-0.556619,-0.601167,-0.552763,-0.52394,-0.555372,-0.661904,-0.563349,-0.569985,-0.4399,-0.592516,-0.782874,-0.413225,-0.605009,-0.585071,-0.728998,-0.71043,'\'(6.266667-10.533333]\''
-0.645815,-0.653794,-0.773591,-0.573764,-0.548836,-0.599954,-0.547294,-0.511924,-0.548011,-0.654916,-0.550961,-0.560929,-0.428077,-0.579547,-0.782105,-0.412877,-0.598844,-0.581955,-0.731272,-0.706903,'\'(6.266667-10.533333]\''
-0.636877,-0.651707,-0.768476,-0.565537,-0.540716,-0.599896,-0.536358,-0.504277,-0.539423,-0.647498,-0.542289,-0.553167,-0.421321,-0.570115,-0.780805,-0.412877,-0.59448,-0.581703,-0.72429,-0.699663,'\'(6.266667-10.533333]\''
-0.625258,-0.649738,-0.76393,-0.554959,-0.532811,-0.600705,-0.528155,-0.497723,-0.532062,-0.640596,-0.53114,-0.545405,-0.411187,-0.558325,-0.779858,-0.412856,-0.588943,-0.582962,-0.73156,-0.701582,'\'(6.266667-10.533333]\''
-0.62079,-0.64708,-0.759383,-0.551433,-0.526858,-0.600532,-0.524054,-0.486799,-0.524701,-0.634782,-0.527424,-0.538937,-0.409498,-0.554788,-0.779052,-0.412569,-0.585875,-0.58101,-0.737454,-0.707823,'\'(6.266667-10.533333]\''
-0.61364,-0.644673,-0.754268,-0.546732,-0.519777,-0.599261,-0.52132,-0.474783,-0.518567,-0.627308,-0.522468,-0.532468,-0.40612,-0.548893,-0.778222,-0.411975,-0.578606,-0.582049,-0.739535,-0.708548,'\'(6.266667-10.533333]\''
-0.609171,-0.641409,-0.75029,-0.543206,-0.515687,-0.597239,-0.519953,-0.471505,-0.516114,-0.623556,-0.519991,-0.527294,-0.402742,-0.545356,-0.777107,-0.410869,-0.581169,-0.583843,-0.73281,-0.706603,'\'(6.266667-10.533333]\''
-0.604702,-0.638902,-0.746312,-0.53968,-0.507781,-0.597759,-0.496712,-0.432179,-0.492804,-0.61568,-0.516274,-0.522119,-0.401053,-0.541819,-0.776079,-0.40964,-0.528731,-0.584977,-0.734763,-0.71155,'\'(6.266667-10.533333]\''
-0.601127,-0.638212,-0.742902,-0.536154,-0.503752,-0.599087,-0.503547,-0.457304,-0.501392,-0.612129,-0.512558,-0.518238,-0.397675,-0.539461,-0.774855,-0.409804,-0.533832,-0.585008,-0.724803,-0.699611,'\'(6.266667-10.533333]\''
-0.600233,-0.636193,-0.738356,-0.536154,-0.500302,-0.599838,-0.499446,-0.45075,-0.495258,-0.606745,-0.513797,-0.516944,-0.399364,-0.539461,-0.773357,-0.40964,-0.532618,-0.584442,-0.72602,-0.703832,'\'(6.266667-10.533333]\''
-0.592189,-0.633265,-0.733241,-0.532628,-0.499631,-0.598394,-0.493978,-0.449658,-0.492804,-0.602735,-0.51008,-0.516944,-0.402742,-0.535924,-0.77244,-0.408739,-0.530027,-0.586519,-0.725379,-0.701708,'\'(6.266667-10.533333]\''
-0.585039,-0.63133,-0.728694,-0.522051,-0.491634,-0.597643,-0.487142,-0.435457,-0.484216,-0.596663,-0.498931,-0.509182,-0.387541,-0.525313,-0.77131,-0.408821,-0.536368,-0.584347,-0.722048,-0.696635,'\'(6.266667-10.533333]\''
-0.577889,-0.629546,-0.723579,-0.509122,-0.481805,-0.596661,-0.481674,-0.434364,-0.480536,-0.591022,-0.485304,-0.496246,-0.363895,-0.511165,-0.770276,-0.408657,-0.532836,-0.584379,-0.728069,-0.704095,'\'(6.266667-10.533333]\''
-0.573421,-0.628621,-0.719033,-0.503246,-0.473716,-0.595679,-0.477573,-0.425625,-0.474401,-0.583633,-0.47911,-0.489777,-0.35545,-0.50527,-0.770099,-0.408555,-0.529809,-0.588628,-0.7216,-0.695957,'\'(6.266667-10.533333]\''
-0.568058,-0.626315,-0.713918,-0.500895,-0.469473,-0.595332,-0.473471,-0.422348,-0.470721,-0.576788,-0.476632,-0.488484,-0.35545,-0.501734,-0.76946,-0.407858,-0.531459,-0.588376,-0.720799,-0.698244,'\'(6.266667-10.533333]\''
-0.568058,-0.624094,-0.709372,-0.500895,-0.465658,-0.595679,-0.470737,-0.426717,-0.469494,-0.571948,-0.477871,-0.484603,-0.357139,-0.501734,-0.76897,-0.406732,-0.531991,-0.590202,-0.710807,-0.691903,'\'(6.266667-10.533333]\''
-0.565377,-0.622193,-0.704825,-0.496194,-0.457905,-0.594754,-0.472104,-0.411424,-0.46704,-0.564072,-0.472916,-0.478134,-0.350383,-0.497018,-0.768564,-0.405175,-0.533464,-0.590485,-0.705874,-0.686425,'\'(6.266667-10.533333]\''
-0.567164,-0.619837,-0.699142,-0.497369,-0.453723,-0.59331,-0.46937,-0.416886,-0.465814,-0.558688,-0.474154,-0.475547,-0.348694,-0.497018,-0.768239,-0.403742,-0.539355,-0.589793,-0.69681,-0.679028,'\'(10.533333-inf)\''
-0.574314,-0.616101,-0.695164,-0.500895,-0.451617,-0.591461,-0.465269,-0.399408,-0.459679,-0.554907,-0.480348,-0.474253,-0.348694,-0.501734,-0.768007,-0.403066,-0.542819,-0.588754,-0.691974,-0.678944,'\'(10.533333-inf)\''
-0.568952,-0.607099,-0.691186,-0.498545,-0.445115,-0.592501,-0.461167,-0.401592,-0.454772,-0.547862,-0.476632,-0.471666,-0.348694,-0.497018,-0.766626,-0.402574,-0.549038,-0.584032,-0.690821,-0.682172,'\'(6.266667-10.533333]\''
-0.565377,-0.600806,-0.686071,-0.497369,-0.442734,-0.593599,-0.451598,-0.391761,-0.448638,-0.543853,-0.476632,-0.471666,-0.352072,-0.497018,-0.766019,-0.40112,-0.550102,-0.58378,-0.69111,-0.680842,'\'(6.266667-10.533333]\''
-0.563589,-0.59771,-0.684934,-0.496194,-0.440933,-0.593426,-0.451598,-0.392853,-0.449865,-0.542621,-0.475393,-0.469079,-0.350383,-0.497018,-0.765358,-0.399829,-0.555107,-0.577485,-0.679099,-0.667988,'\'(6.266667-10.533333]\''
-0.558227,-0.595455,-0.682661,-0.487967,-0.434523,-0.591866,-0.448864,-0.393946,-0.448638,-0.538955,-0.466721,-0.461317,-0.33856,-0.487586,-0.764266,-0.399297,-0.554398,-0.571378,-0.672021,-0.666621,'\'(6.266667-10.533333]\''
-0.556439,-0.593015,-0.679819,-0.483266,-0.430525,-0.591057,-0.444762,-0.4005,-0.447411,-0.537208,-0.461766,-0.456142,-0.328426,-0.48287,-0.763101,-0.397904,-0.551957,-0.565712,-0.665135,-0.658299,'\'(6.266667-10.533333]\''
-0.553758,-0.591265,-0.676978,-0.480915,-0.425244,-0.589959,-0.442028,-0.399408,-0.444958,-0.531967,-0.45805,-0.452261,-0.323359,-0.479333,-0.761679,-0.397085,-0.550007,-0.557622,-0.653893,-0.646649,'\'(6.266667-10.533333]\''
-0.550183,-0.589364,-0.674705,-0.476214,-0.417216,-0.588804,-0.435193,-0.399408,-0.44005,-0.524292,-0.453094,-0.44838,-0.316603,-0.473438,-0.759771,-0.396306,-0.547115,-0.549375,-0.645886,-0.643621,'\'(6.266667-10.533333]\''
-0.548395,-0.587816,-0.671295,-0.472688,-0.411111,-0.588746,-0.435193,-0.397223,-0.438823,-0.517533,-0.449378,-0.443205,-0.311536,-0.468722,-0.758056,-0.395753,-0.541251,-0.562344,-0.642748,-0.651359,'\'(6.266667-10.533333]\''
-0.54482,-0.586267,-0.669022,-0.469162,-0.406075,-0.589035,-0.428357,-0.391761,-0.432689,-0.511519,-0.445661,-0.440618,-0.308158,-0.465185,-0.75609,-0.395282,-0.534909,-0.532628,-0.639545,-0.641586,'\'(6.266667-10.533333]\''
-0.540352,-0.583575,-0.66618,-0.464461,-0.403633,-0.588168,-0.422889,-0.389576,-0.429009,-0.508827,-0.441945,-0.435443,-0.303091,-0.461648,-0.754185,-0.394381,-0.532073,-0.529229,-0.630001,-0.633495,'\'(6.266667-10.533333]\''
-0.534989,-0.581371,-0.663338,-0.460935,-0.401588,-0.586608,-0.41742,-0.390668,-0.425328,-0.50645,-0.438229,-0.431562,-0.301402,-0.456932,-0.752304,-0.394012,-0.526004,-0.522838,-0.627278,-0.626597,'\'(6.266667-10.533333]\''
-0.532308,-0.579486,-0.659929,-0.457409,-0.400794,-0.584817,-0.413319,-0.386299,-0.421648,-0.505762,-0.435751,-0.428975,-0.299713,-0.454574,-0.750618,-0.393521,-0.52048,-0.514969,-0.614051,-0.623222,'\'(6.266667-10.533333]\''
-0.527839,-0.577013,-0.656519,-0.449182,-0.394506,-0.585337,-0.407851,-0.37756,-0.414287,-0.501753,-0.428318,-0.419919,-0.28789,-0.448679,-0.748718,-0.392763,-0.516893,-0.505399,-0.606332,-0.610968,'\'(6.266667-10.533333]\''
-0.52337,-0.573647,-0.650836,-0.443306,-0.384739,-0.587937,-0.406484,-0.385206,-0.41306,-0.492102,-0.422124,-0.412157,-0.279445,-0.442784,-0.746511,-0.392271,-0.506187,-0.496586,-0.622506,-0.611619,'\'(6.266667-10.533333]\''
-0.519795,-0.570787,-0.649699,-0.43978,-0.379946,-0.586608,-0.401015,-0.379744,-0.410606,-0.486574,-0.418407,-0.40957,-0.276067,-0.439247,-0.744012,-0.391473,-0.496886,-0.490007,-0.612418,-0.615499,'\'(6.266667-10.533333]\''
-0.515326,-0.56801,-0.646289,-0.435078,-0.37436,-0.584817,-0.398281,-0.376467,-0.406926,-0.480732,-0.413452,-0.405689,-0.271,-0.433352,-0.741654,-0.390735,-0.486085,-0.481602,-0.604058,-0.605332,'\'(6.266667-10.533333]\''
-0.511751,-0.565924,-0.644016,-0.432728,-0.372498,-0.584471,-0.396914,-0.37319,-0.403245,-0.477123,-0.410974,-0.403102,-0.269311,-0.429815,-0.739632,-0.390387,-0.47647,-0.474614,-0.59714,-0.601688,'\'(6.266667-10.533333]\''
-0.50907,-0.564073,-0.641174,-0.430377,-0.369873,-0.582795,-0.391446,-0.372098,-0.398338,-0.47403,-0.408497,-0.400514,-0.267622,-0.427457,-0.737372,-0.38967,-0.473006,-0.46602,-0.588813,-0.593655,'\'(6.266667-10.533333]\''
-0.502814,-0.562659,-0.638333,-0.425676,-0.364593,-0.581755,-0.388711,-0.371005,-0.397111,-0.467729,-0.40478,-0.396633,-0.265933,-0.422741,-0.735435,-0.389527,-0.465983,-0.458591,-0.593777,-0.602608,'\'(6.266667-10.533333]\''
-0.498345,-0.561498,-0.635491,-0.42215,-0.360045,-0.582217,-0.383243,-0.371005,-0.393431,-0.463605,-0.399825,-0.392752,-0.262555,-0.419204,-0.733445,-0.389506,-0.455809,-0.452107,-0.588877,-0.605716,'\'(6.266667-10.533333]\''
-0.493876,-0.559143,-0.633218,-0.418624,-0.35803,-0.581524,-0.379142,-0.371005,-0.38975,-0.462059,-0.396109,-0.388871,-0.259177,-0.414488,-0.731146,-0.389076,-0.450231,-0.442569,-0.579877,-0.597803,'\'(6.266667-10.533333]\''
-0.490301,-0.556703,-0.629808,-0.413923,-0.35452,-0.581409,-0.37504,-0.372098,-0.387297,-0.458823,-0.392392,-0.383696,-0.25411,-0.409772,-0.729503,-0.388953,-0.445648,-0.433881,-0.584041,-0.595064,'\'(6.266667-10.533333]\''
-0.486726,-0.552917,-0.626398,-0.411572,-0.352414,-0.579964,-0.369572,-0.372098,-0.382389,-0.456073,-0.389915,-0.382403,-0.25411,-0.407414,-0.726804,-0.388175,-0.441584,-0.423178,-0.566041,-0.584218,'\'(6.266667-10.533333]\''
-0.483151,-0.54871,-0.623557,-0.409222,-0.348201,-0.577538,-0.365471,-0.364451,-0.377482,-0.450689,-0.387437,-0.381109,-0.25411,-0.406235,-0.724625,-0.387335,-0.439347,-0.420314,-0.564088,-0.586663,'\'(6.266667-10.533333]\''
-0.48047,-0.544335,-0.621283,-0.406871,-0.340723,-0.578462,-0.358635,-0.357897,-0.371348,-0.442785,-0.382482,-0.377228,-0.250732,-0.402698,-0.723059,-0.386229,-0.437847,-0.41194,-0.552718,-0.58231,'\'(6.266667-10.533333]\''
-0.476001,-0.540684,-0.617873,-0.399819,-0.333733,-0.580195,-0.355901,-0.352435,-0.36644,-0.437687,-0.375049,-0.372053,-0.240598,-0.395624,-0.72068,-0.384877,-0.434097,-0.406211,-0.547946,-0.57608,'\'(6.266667-10.533333]\''
-0.471532,-0.538648,-0.614464,-0.393943,-0.327811,-0.578751,-0.3518,-0.357897,-0.365214,-0.43279,-0.370093,-0.365585,-0.233842,-0.38973,-0.718597,-0.384263,-0.433988,-0.396799,-0.549227,-0.573094,'\'(6.266667-10.533333]\''
-0.468851,-0.5371,-0.611054,-0.391592,-0.325614,-0.577133,-0.347699,-0.355712,-0.360306,-0.431243,-0.366377,-0.361704,-0.228775,-0.386193,-0.716526,-0.383485,-0.433319,-0.390094,-0.545736,-0.565466,'\'(6.266667-10.533333]\''
-0.462595,-0.534727,-0.607644,-0.389242,-0.322012,-0.57644,-0.344964,-0.355712,-0.359079,-0.425372,-0.363899,-0.361704,-0.232153,-0.382656,-0.714426,-0.382522,-0.433497,-0.381092,-0.530971,-0.561717,'\'(6.266667-10.533333]\''
-0.45902,-0.53084,-0.603666,-0.385716,-0.31786,-0.574418,-0.34223,-0.356804,-0.356626,-0.421448,-0.360183,-0.359117,-0.230464,-0.379119,-0.712489,-0.381047,-0.43081,-0.375205,-0.537857,-0.565071,'\'(6.266667-10.533333]\''
-0.454551,-0.527996,-0.600256,-0.383365,-0.314106,-0.573205,-0.338129,-0.353527,-0.352945,-0.416608,-0.357705,-0.356529,-0.230464,-0.375582,-0.710547,-0.379654,-0.43111,-0.367902,-0.528409,-0.564025,'\'(6.266667-10.533333]\''
-0.450976,-0.525556,-0.596278,-0.381015,-0.309039,-0.572916,-0.336762,-0.351342,-0.351718,-0.410021,-0.356466,-0.356529,-0.232153,-0.374403,-0.70822,-0.3782,-0.431083,-0.361764,-0.515278,-0.55543,'\'(6.266667-10.533333]\''
-0.448295,-0.52347,-0.592868,-0.378664,-0.306444,-0.571818,-0.335395,-0.346973,-0.349265,-0.4071,-0.353989,-0.353942,-0.228775,-0.370866,-0.705636,-0.376746,-0.430687,-0.354744,-0.497182,-0.538296,'\'(6.266667-10.533333]\''
-0.443826,-0.521518,-0.589458,-0.373963,-0.30388,-0.571067,-0.33266,-0.35025,-0.348038,-0.405926,-0.349033,-0.350061,-0.225398,-0.36615,-0.70302,-0.375824,-0.425928,-0.348858,-0.517936,-0.556423,'\'(6.266667-10.533333]\''
-0.438464,-0.519869,-0.58548,-0.368086,-0.299393,-0.569045,-0.328559,-0.352435,-0.345584,-0.402947,-0.341601,-0.343593,-0.216953,-0.359076,-0.700596,-0.374923,-0.422764,-0.341964,-0.514445,-0.553495,'\'(6.266667-10.533333]\''
-0.434889,-0.517463,-0.58207,-0.36221,-0.294204,-0.566041,-0.320357,-0.341511,-0.336996,-0.398623,-0.336645,-0.337124,-0.208508,-0.355539,-0.698197,-0.373366,-0.4199,-0.336676,-0.499872,-0.545872,'\'(6.266667-10.533333]\''
-0.429526,-0.51578,-0.576955,-0.357509,-0.287062,-0.567774,-0.323091,-0.35025,-0.340677,-0.390948,-0.336645,-0.333243,-0.203441,-0.349644,-0.695627,-0.373039,-0.419081,-0.333182,-0.498527,-0.539889,'\'(6.266667-10.533333]\''
-0.425951,-0.513963,-0.572409,-0.359859,-0.287062,-0.570027,-0.31899,-0.346973,-0.33945,-0.385535,-0.340362,-0.337124,-0.218642,-0.353181,-0.692951,-0.37226,-0.418154,-0.328145,-0.501826,-0.545698,'\'(6.266667-10.533333]\''
-0.420588,-0.510564,-0.567294,-0.366911,-0.29048,-0.567947,-0.316255,-0.354619,-0.338223,-0.380408,-0.347795,-0.348767,-0.243976,-0.361434,-0.690169,-0.37056,-0.415222,-0.323612,-0.497278,-0.549983,'\'(6.266667-10.533333]\''
-0.41612,-0.506407,-0.563316,-0.371612,-0.293655,-0.56581,-0.31899,-0.34588,-0.336996,-0.37826,-0.353989,-0.357823,-0.264244,-0.367329,-0.687431,-0.369024,-0.414513,-0.317694,-0.489047,-0.546072,'\'(6.266667-10.533333]\''
-0.414332,-0.501864,-0.558769,-0.368086,-0.290816,-0.565059,-0.314888,-0.340418,-0.334543,-0.376771,-0.351511,-0.355236,-0.260866,-0.364971,-0.684803,-0.366771,-0.417349,-0.311241,-0.480976,-0.537108,'\'(6.266667-10.533333]\''
-0.408076,-0.498465,-0.555359,-0.363385,-0.285017,-0.562921,-0.316255,-0.337141,-0.334543,-0.372303,-0.345317,-0.348767,-0.255799,-0.359076,-0.682123,-0.36501,-0.41709,-0.311462,-0.484019,-0.536445,'\'(6.266667-10.533333]\''
-0.406288,-0.494831,-0.551381,-0.36221,-0.28462,-0.561246,-0.313521,-0.337141,-0.332089,-0.371616,-0.345317,-0.348767,-0.257488,-0.361434,-0.678826,-0.363023,-0.414172,-0.30057,-0.475147,-0.534306,'\'(6.266667-10.533333]\''
-0.402713,-0.491482,-0.547403,-0.361035,-0.282666,-0.56113,-0.312154,-0.331679,-0.329635,-0.369955,-0.344078,-0.347474,-0.259177,-0.361434,-0.675314,-0.361302,-0.414894,-0.296635,-0.468645,-0.527871,'\'(6.266667-10.533333]\''
-0.399138,-0.487898,-0.542856,-0.356333,-0.277538,-0.560033,-0.313521,-0.329494,-0.329635,-0.365401,-0.339123,-0.343593,-0.252421,-0.355539,-0.671903,-0.35952,-0.418931,-0.28546,-0.438764,-0.490534,'\'(6.266667-10.533333]\''
-0.395563,-0.4846,-0.538878,-0.353983,-0.27473,-0.558935,-0.310787,-0.320755,-0.325955,-0.361105,-0.337884,-0.343593,-0.252421,-0.35436,-0.669284,-0.357984,-0.414649,-0.279322,-0.459485,-0.518692,'\'(6.266667-10.533333]\''
-0.392882,-0.482261,-0.534332,-0.351632,-0.271922,-0.556046,-0.308053,-0.310924,-0.322275,-0.358757,-0.335406,-0.339712,-0.249043,-0.352002,-0.666264,-0.355833,-0.415208,-0.27331,-0.464033,-0.521683,'\'(6.266667-10.533333]\''
-0.390201,-0.477768,-0.530354,-0.346931,-0.269755,-0.552233,-0.305319,-0.308739,-0.319821,-0.358872,-0.33169,-0.335831,-0.243976,-0.348465,-0.659749,-0.35188,-0.421673,-0.268021,-0.433863,-0.4927,'\'(6.266667-10.533333]\''
-0.386626,-0.475093,-0.527512,-0.339879,-0.262337,-0.553158,-0.303951,-0.321848,-0.321048,-0.356981,-0.321779,-0.325481,-0.227086,-0.339033,-0.652887,-0.350754,-0.414335,-0.262544,-0.468966,-0.535983,'\'(6.266667-10.533333]\''
-0.383051,-0.474487,-0.52467,-0.335178,-0.256782,-0.555757,-0.301217,-0.326217,-0.321048,-0.355234,-0.315585,-0.319013,-0.216953,-0.333138,-0.649697,-0.350651,-0.411512,-0.256973,-0.443087,-0.504723,'\'(6.266667-10.533333]\''
-0.380369,-0.473444,-0.521261,-0.330477,-0.25257,-0.554429,-0.298483,-0.312016,-0.31614,-0.35217,-0.311869,-0.313838,-0.210197,-0.329601,-0.645148,-0.350017,-0.406357,-0.249607,-0.441422,-0.500254,'\'(6.266667-10.533333]\''
-0.375007,-0.471088,-0.516714,-0.3246,-0.246617,-0.551655,-0.298483,-0.314201,-0.31614,-0.347187,-0.305675,-0.308664,-0.203441,-0.322527,-0.640456,-0.347948,-0.403316,-0.240163,-0.434824,-0.494824,'\'(6.266667-10.533333]\''
-0.371432,-0.470213,-0.513304,-0.321074,-0.242558,-0.551078,-0.295749,-0.309831,-0.31246,-0.343693,-0.301958,-0.304783,-0.198374,-0.31899,-0.636392,-0.347559,-0.395678,-0.234466,-0.433991,-0.494944,'\'(6.266667-10.533333]\''
-0.367857,-0.469927,-0.508758,-0.315198,-0.236483,-0.549749,-0.294382,-0.304369,-0.310006,-0.339311,-0.295764,-0.298314,-0.189929,-0.314274,-0.630902,-0.348091,-0.390973,-0.229051,-0.42813,-0.485707,'\'(-inf-6.266667]\''
-0.365176,-0.469186,-0.505348,-0.311672,-0.232759,-0.548651,-0.294382,-0.310924,-0.31246,-0.336189,-0.293287,-0.294433,-0.184862,-0.310737,-0.626547,-0.348132,-0.388968,-0.220174,-0.421308,-0.481239,'\'(-inf-6.266667]\''
-0.359813,-0.467638,-0.501938,-0.305795,-0.22638,-0.548767,-0.286179,-0.306554,-0.306326,-0.331263,-0.285854,-0.287965,-0.176417,-0.303663,-0.622678,-0.347743,-0.388327,-0.216334,-0.410515,-0.4685,'\'(-inf-6.266667]\''
-0.355344,-0.465737,-0.49796,-0.301094,-0.220916,-0.547785,-0.279344,-0.307647,-0.302645,-0.326166,-0.282137,-0.284084,-0.17135,-0.298947,-0.618754,-0.34719,-0.385123,-0.211077,-0.417209,-0.477659,'\'(-inf-6.266667]\''
-0.351769,-0.463162,-0.495118,-0.297568,-0.215758,-0.546745,-0.280711,-0.304369,-0.301418,-0.321297,-0.277182,-0.281497,-0.167972,-0.294231,-0.614429,-0.345428,-0.373148,-0.198423,-0.418074,-0.479998,'\'(-inf-6.266667]\''
-0.348194,-0.462473,-0.491708,-0.292867,-0.212675,-0.54426,-0.27661,-0.292353,-0.295284,-0.31829,-0.273465,-0.276322,-0.162905,-0.289515,-0.610509,-0.346043,-0.366288,-0.19282,-0.416408,-0.477411,'\'(-inf-6.266667]\''
-0.344619,-0.461211,-0.488867,-0.290517,-0.209653,-0.541661,-0.273875,-0.303277,-0.296511,-0.314137,-0.270988,-0.275028,-0.162905,-0.287157,-0.605978,-0.346657,-0.357424,-0.185643,-0.405583,-0.468853,'\'(-inf-6.266667]\''
-0.341044,-0.457677,-0.483752,-0.285815,-0.203304,-0.542007,-0.271141,-0.27706,-0.28915,-0.307435,-0.267271,-0.272441,-0.159527,-0.28362,-0.602654,-0.345428,-0.353482,-0.179473,-0.393348,-0.466508,'\'(-inf-6.266667]\''
-0.336575,-0.453807,-0.479206,-0.283465,-0.200862,-0.545243,-0.269774,-0.290168,-0.291604,-0.302825,-0.264794,-0.271147,-0.159527,-0.281263,-0.600188,-0.345121,-0.345886,-0.168141,-0.392003,-0.461803,'\'(-inf-6.266667]\''
-0.333,-0.450391,-0.475796,-0.279939,-0.195215,-0.543683,-0.26704,-0.291261,-0.287923,-0.297641,-0.261077,-0.265973,-0.15446,-0.275368,-0.597077,-0.344281,-0.340185,-0.161216,-0.379512,-0.449721,'\'(-inf-6.266667]\''
-0.328532,-0.447026,-0.470681,-0.271712,-0.187187,-0.540794,-0.260204,-0.278152,-0.280562,-0.291884,-0.252405,-0.256917,-0.142637,-0.268294,-0.592845,-0.342991,-0.334689,-0.155329,-0.385469,-0.452944,'\'(-inf-6.266667]\''
-0.324957,-0.444451,-0.465566,-0.268186,-0.182364,-0.540563,-0.256103,-0.275967,-0.276882,-0.287102,-0.248689,-0.253036,-0.139259,-0.264757,-0.588772,-0.342254,-0.329016,-0.148593,-0.376085,-0.446614,'\'(-inf-6.266667]\''
-0.319594,-0.442365,-0.461588,-0.262309,-0.175283,-0.538079,-0.253369,-0.271598,-0.273201,-0.280543,-0.243734,-0.246568,-0.130814,-0.260041,-0.584992,-0.340902,-0.318528,-0.138866,-0.371313,-0.443176,'\'(-inf-6.266667]\''
-0.316019,-0.440884,-0.457041,-0.256433,-0.167163,-0.536519,-0.252002,-0.263951,-0.269521,-0.275274,-0.236301,-0.238806,-0.118991,-0.254146,-0.581001,-0.340267,-0.313796,-0.132287,-0.36779,-0.441136,'\'(-inf-6.266667]\''
-0.310657,-0.440076,-0.453063,-0.250556,-0.162188,-0.537097,-0.249268,-0.263951,-0.268294,-0.269975,-0.231346,-0.233631,-0.113924,-0.250609,-0.576791,-0.339878,-0.303703,-0.127124,-0.361096,-0.436988,'\'(-inf-6.266667]\''
-0.306188,-0.439252,-0.449085,-0.24468,-0.153977,-0.536865,-0.242432,-0.258489,-0.263387,-0.263932,-0.223913,-0.225869,-0.10379,-0.243535,-0.572855,-0.339796,-0.296571,-0.116957,-0.365196,-0.439359,'\'(-inf-6.266667]\''
-0.300825,-0.437838,-0.44397,-0.239979,-0.148452,-0.53675,-0.236964,-0.256304,-0.257253,-0.258634,-0.220196,-0.220694,-0.100412,-0.238819,-0.568726,-0.339878,-0.296107,-0.110095,-0.353186,-0.424113,'\'(-inf-6.266667]\''
-0.29725,-0.435331,-0.44056,-0.235277,-0.144515,-0.534555,-0.232863,-0.255212,-0.254799,-0.254481,-0.215241,-0.216813,-0.095345,-0.234103,-0.565635,-0.33955,-0.291115,-0.100714,-0.349438,-0.417952,'\'(-inf-6.266667]\''
-0.292781,-0.433985,-0.436582,-0.230576,-0.139203,-0.531897,-0.231495,-0.250842,-0.252345,-0.249871,-0.211524,-0.211638,-0.091967,-0.229387,-0.562158,-0.339181,-0.279182,-0.092624,-0.341367,-0.412615,'\'(-inf-6.266667]\''
-0.288313,-0.433396,-0.430331,-0.2247,-0.130443,-0.532821,-0.227394,-0.241011,-0.248665,-0.243541,-0.20533,-0.203876,-0.081833,-0.223492,-0.554587,-0.339386,-0.269622,-0.085699,-0.338709,-0.407121,'\'(-inf-6.266667]\''
-0.283844,-0.433312,-0.424079,-0.219999,-0.124735,-0.536808,-0.223293,-0.238826,-0.244984,-0.238902,-0.200375,-0.198702,-0.075077,-0.219955,-0.550847,-0.339775,-0.261412,-0.076791,-0.341848,-0.417242,'\'(-inf-6.266667]\''
-0.278481,-0.43205,-0.418965,-0.212947,-0.118325,-0.534786,-0.219192,-0.232271,-0.240077,-0.233317,-0.192942,-0.19094,-0.064943,-0.212881,-0.547532,-0.339939,-0.25522,-0.070338,-0.342809,-0.412968,'\'(-inf-6.266667]\''
-0.274013,-0.43099,-0.414418,-0.202369,-0.106817,-0.533168,-0.220559,-0.224625,-0.23885,-0.228592,-0.181793,-0.176709,-0.041297,-0.20227,-0.542269,-0.340718,-0.246383,-0.065962,-0.333969,-0.398936,'\'(-inf-6.266667]\''
-0.26865,-0.430047,-0.409303,-0.195317,-0.100468,-0.533746,-0.217824,-0.225717,-0.236396,-0.22421,-0.17436,-0.168947,-0.031163,-0.195196,-0.538859,-0.341578,-0.236945,-0.061775,-0.335731,-0.393836,'\'(-inf-6.266667]\''
-0.264181,-0.427305,-0.403052,-0.190616,-0.096653,-0.531955,-0.213723,-0.223532,-0.233943,-0.219799,-0.170643,-0.165066,-0.029474,-0.191659,-0.534532,-0.341885,-0.228312,-0.057022,-0.332784,-0.393605,'\'(-inf-6.266667]\''
-0.257925,-0.423182,-0.397369,-0.185915,-0.092471,-0.530799,-0.209622,-0.214793,-0.226582,-0.215303,-0.165688,-0.162479,-0.027785,-0.186943,-0.5297,-0.341004,-0.222134,-0.054913,-0.328332,-0.389757,'\'(-inf-6.266667]\''
-0.253456,-0.41948,-0.391686,-0.185915,-0.092257,-0.531839,-0.205521,-0.215886,-0.224128,-0.211437,-0.165688,-0.162479,-0.032852,-0.185764,-0.524026,-0.340677,-0.219638,-0.053969,-0.313888,-0.377654,'\'(-inf-6.266667]\''
-0.250775,-0.416434,-0.384866,-0.182389,-0.08835,-0.531781,-0.202786,-0.212608,-0.221674,-0.207055,-0.16321,-0.158598,-0.029474,-0.183406,-0.5191,-0.340349,-0.220975,-0.04462,-0.316738,-0.378422,'\'(-inf-6.266667]\''
-0.245412,-0.4128,-0.379183,-0.175337,-0.081483,-0.531666,-0.200052,-0.206054,-0.217994,-0.202129,-0.155778,-0.15213,-0.01934,-0.175153,-0.515611,-0.339202,-0.216761,-0.041157,-0.317763,-0.387096,'\'(-inf-6.266667]\''
-0.24005,-0.409569,-0.371795,-0.169461,-0.077636,-0.529586,-0.198685,-0.198407,-0.213087,-0.197976,-0.150822,-0.146955,-0.014273,-0.171616,-0.511362,-0.338936,-0.211374,-0.032847,-0.317026,-0.380309,'\'(-inf-6.266667]\''
-0.234687,-0.406338,-0.367248,-0.164759,-0.072508,-0.525831,-0.19185,-0.188576,-0.208179,-0.192019,-0.145867,-0.14178,-0.009206,-0.165722,-0.507295,-0.337911,-0.213392,-0.028314,-0.304472,-0.378285,'\'(-inf-6.266667]\''
-0.230219,-0.403932,-0.360997,-0.150656,-0.059078,-0.526524,-0.187748,-0.180929,-0.200818,-0.18675,-0.131001,-0.123669,0.021196,-0.153932,-0.503973,-0.337399,-0.211033,-0.017989,-0.296849,-0.353692,'\'(-inf-6.266667]\''
-0.224856,-0.401846,-0.354745,-0.144779,-0.051203,-0.529644,-0.171343,-0.177652,-0.191004,-0.182196,-0.124807,-0.115907,0.029641,-0.149216,-0.498893,-0.336846,-0.210119,-0.013204,-0.3046,-0.359958,'\'(-inf-6.266667]\''
-0.217706,-0.400011,-0.347926,-0.137728,-0.044426,-0.526928,-0.163141,-0.175467,-0.18487,-0.174377,-0.118613,-0.110732,0.033019,-0.140963,-0.494977,-0.33615,-0.207678,-0.005272,-0.299443,-0.356883,'\'(-inf-6.266667]\''
-0.212343,-0.398076,-0.340538,-0.134202,-0.040641,-0.52404,-0.165875,-0.176559,-0.187323,-0.16948,-0.114896,-0.106851,0.034708,-0.136247,-0.490994,-0.335208,-0.203368,-0.00247,-0.296529,-0.362776,'\'(-inf-6.266667]\''
-0.207875,-0.398245,-0.333718,-0.131851,-0.036582,-0.524098,-0.157672,-0.173282,-0.182416,-0.164583,-0.112419,-0.104264,0.034708,-0.133889,-0.485853,-0.335597,-0.195772,0.004864,-0.297618,-0.36439,'\'(-inf-6.266667]\''
-0.199831,-0.39604,-0.326898,-0.122449,-0.028584,-0.521556,-0.152204,-0.171097,-0.177509,-0.157423,-0.103747,-0.096502,0.044842,-0.125636,-0.481448,-0.334655,-0.197463,0.006753,-0.292749,-0.357319,'\'(-inf-6.266667]\''
-0.192681,-0.394223,-0.318942,-0.115397,-0.024097,-0.520285,-0.148103,-0.170005,-0.173828,-0.15433,-0.096314,-0.090034,0.051598,-0.118562,-0.476573,-0.334389,-0.190317,0.008893,-0.289611,-0.354564,'\'(-inf-6.266667]\''
-0.183743,-0.391278,-0.310985,-0.102469,-0.011979,-0.519591,-0.14947,-0.173282,-0.175055,-0.146425,-0.083926,-0.075803,0.071866,-0.104414,-0.473763,-0.333242,-0.18403,0.005368,-0.28913,-0.350574,'\'(-inf-6.266667]\''
-0.179275,-0.389158,-0.304734,-0.091891,-0.000716,-0.517916,-0.141267,-0.164543,-0.167694,-0.141242,-0.072777,-0.061573,0.093823,-0.091445,-0.471485,-0.33232,-0.179352,0.005179,-0.289867,-0.347888,'\'(-inf-6.266667]\''
-0.174806,-0.388367,-0.296778,-0.081313,0.009845,-0.517454,-0.133065,-0.163451,-0.164013,-0.135686,-0.061627,-0.047342,0.11578,-0.080834,-0.468087,-0.332381,-0.176583,0.003668,-0.298482,-0.344907,'\'(-inf-6.266667]\''
-0.169443,-0.387812,-0.288821,-0.077787,0.012196,-0.514623,-0.137166,-0.160173,-0.164013,-0.132535,-0.057911,-0.042168,0.119158,-0.076118,-0.465134,-0.331931,-0.173719,0.00477,-0.299892,-0.347183,'\'(-inf-6.266667]\''
-0.164974,-0.386264,-0.28257,-0.071911,0.013936,-0.513698,-0.131697,-0.159081,-0.159106,-0.130817,-0.052955,-0.036993,0.124225,-0.070223,-0.460958,-0.331398,-0.17912,0.005651,-0.305496,-0.353949,'\'(6.266667-10.533333]\''
-0.156037,-0.383588,-0.27575,-0.066034,0.021017,-0.516991,-0.126229,-0.141603,-0.152972,-0.123342,-0.046761,-0.031818,0.124225,-0.064328,-0.458222,-0.330886,-0.172274,0.006627,-0.319236,-0.372029,'\'(6.266667-10.533333]\''
-0.149781,-0.380762,-0.269499,-0.064859,0.021963,-0.518551,-0.126229,-0.147065,-0.154199,-0.120106,-0.046761,-0.031818,0.117469,-0.063149,-0.455227,-0.32978,-0.17511,0.001496,-0.309884,-0.35908,'\'(6.266667-10.533333]\''
-0.147099,-0.377834,-0.263247,-0.064859,0.02236,-0.516125,-0.122128,-0.151434,-0.152972,-0.117099,-0.046761,-0.033112,0.110713,-0.063149,-0.452084,-0.328531,-0.186512,0.000142,-0.291981,-0.354522,'\'(6.266667-10.533333]\''
-0.145312,-0.376067,-0.256996,-0.061333,0.025748,-0.514392,-0.115292,-0.14051,-0.145611,-0.115352,-0.043045,-0.029231,0.119158,-0.060792,-0.450264,-0.327629,-0.189512,-0.003887,-0.297073,-0.346305,'\'(6.266667-10.533333]\''
-0.140843,-0.374283,-0.251881,-0.055456,0.033501,-0.514276,-0.109824,-0.147065,-0.144384,-0.108163,-0.03809,-0.021469,0.125914,-0.054897,-0.449253,-0.326462,-0.19509,-0.0048,-0.293166,-0.346016,'\'(6.266667-10.533333]\''
-0.136374,-0.372786,-0.245061,-0.050755,0.036676,-0.512081,-0.104356,-0.148157,-0.140704,-0.103953,-0.034373,-0.017588,0.130981,-0.05136,-0.447326,-0.324844,-0.198527,-0.000928,-0.29291,-0.34425,'\'(6.266667-10.533333]\''
-0.131012,-0.372079,-0.239378,-0.048405,0.039637,-0.510983,-0.098887,-0.147065,-0.137023,-0.099743,-0.031895,-0.015001,0.129292,-0.046644,-0.448132,-0.32384,-0.199904,-0.000141,-0.285415,-0.341558,'\'(6.266667-10.533333]\''
-0.127437,-0.372264,-0.231422,-0.043703,0.044032,-0.510925,-0.09752,-0.147065,-0.137023,-0.095619,-0.028179,-0.009826,0.13267,-0.040749,-0.448572,-0.322775,-0.200463,0.000583,-0.287753,-0.346121,'\'(6.266667-10.533333]\''
-0.12118,-0.372281,-0.22517,-0.039002,0.050534,-0.509943,-0.093419,-0.14488,-0.133343,-0.089118,-0.023224,-0.004651,0.136048,-0.034854,-0.448206,-0.322181,-0.196222,0.002566,-0.287016,-0.345343,'\'(6.266667-10.533333]\''
-0.117605,-0.371406,-0.219487,-0.036652,0.054075,-0.509192,-0.08795,-0.14488,-0.130889,-0.084736,-0.020746,-0.003358,0.136048,-0.031317,-0.447341,-0.320481,-0.19434,0.004896,-0.29323,-0.350632,'\'(6.266667-10.533333]\''
-0.113137,-0.370497,-0.213804,-0.0296,0.058256,-0.50613,-0.086583,-0.143788,-0.129662,-0.082732,-0.013313,0.004404,0.146182,-0.024243,-0.446567,-0.318515,-0.193399,0.006218,-0.28596,-0.346374,'\'(6.266667-10.533333]\''
-0.10688,-0.36937,-0.206984,-0.024899,0.063018,-0.502086,-0.085216,-0.136141,-0.125982,-0.076775,-0.008358,0.008285,0.151249,-0.018348,-0.445987,-0.316589,-0.187275,0.008484,-0.283301,-0.347057,'\'(6.266667-10.533333]\''
-0.103305,-0.367855,-0.200165,-0.023723,0.065613,-0.503415,-0.089317,-0.135048,-0.127208,-0.072221,-0.008358,0.008285,0.146182,-0.017169,-0.44439,-0.313845,-0.193944,0.011506,-0.260722,-0.331511,'\'(6.266667-10.533333]\''
-0.100624,-0.364692,-0.192777,-0.020197,0.070466,-0.504512,-0.081115,-0.142695,-0.124755,-0.067524,-0.00588,0.012166,0.14956,-0.013632,-0.442987,-0.310813,-0.191845,0.012136,-0.25896,-0.331448,'\'(6.266667-10.533333]\''
-0.096155,-0.364036,-0.185957,-0.014321,0.075106,-0.50197,-0.078381,-0.132864,-0.121074,-0.063085,-0.000925,0.017341,0.156316,-0.008916,-0.442252,-0.308458,-0.1864,0.014308,-0.256078,-0.334281,'\'(6.266667-10.533333]\''
-0.091687,-0.364742,-0.179705,-0.010795,0.080295,-0.503415,-0.072912,-0.131771,-0.116167,-0.057443,0.002791,0.022516,0.158005,-0.0042,-0.438633,-0.307004,-0.182937,0.018872,-0.254765,-0.327623,'\'(6.266667-10.533333]\''
-0.088112,-0.364928,-0.175159,-0.007269,0.082859,-0.502606,-0.068811,-0.131771,-0.11494,-0.055668,0.006508,0.026397,0.163072,0.000516,-0.438308,-0.305611,-0.183689,0.022838,-0.246598,-0.324749,'\'(6.266667-10.533333]\''
-0.084536,-0.365802,-0.170044,-0.002568,0.086277,-0.501104,-0.066077,-0.119755,-0.110033,-0.053491,0.011463,0.031571,0.171517,0.006411,-0.439665,-0.304853,-0.176078,0.025892,-0.242306,-0.320913,'\'(6.266667-10.533333]\''
-0.080068,-0.365718,-0.164361,0.002133,0.092657,-0.499197,-0.063343,-0.130679,-0.11126,-0.047334,0.01518,0.036746,0.174895,0.011127,-0.440128,-0.30301,-0.171138,0.029291,-0.237021,-0.312291,'\'(6.266667-10.533333]\''
-0.076493,-0.364894,-0.159246,0.005659,0.095252,-0.497868,-0.059241,-0.124125,-0.106352,-0.045472,0.020135,0.041921,0.179962,0.014664,-0.439218,-0.30088,-0.167992,0.03417,-0.23305,-0.314606,'\'(6.266667-10.533333]\''
-0.073811,-0.362959,-0.154131,0.009185,0.098426,-0.495442,-0.060608,-0.133956,-0.108806,-0.041606,0.022613,0.045802,0.185029,0.017022,-0.437671,-0.297951,-0.166918,0.036091,-0.222641,-0.304421,'\'(6.266667-10.533333]\''
-0.066661,-0.360687,-0.14788,0.016237,0.105294,-0.493767,-0.057874,-0.123032,-0.103899,-0.034074,0.028807,0.05227,0.190096,0.025275,-0.436027,-0.294735,-0.166377,0.041631,-0.217228,-0.295527,'\'(6.266667-10.533333]\''
-0.061299,-0.360233,-0.142197,0.020938,0.10914,-0.490242,-0.05514,-0.119755,-0.101445,-0.030121,0.033762,0.057445,0.191785,0.03117,-0.435286,-0.292277,-0.163061,0.045817,-0.214474,-0.295208,'\'(6.266667-10.533333]\''
-0.057724,-0.360536,-0.13765,0.023289,0.112559,-0.486776,-0.052406,-0.11757,-0.098991,-0.026226,0.03624,0.061326,0.195163,0.034707,-0.434843,-0.290393,-0.15526,0.051609,-0.203809,-0.287019,'\'(6.266667-10.533333]\''
-0.052361,-0.361478,-0.131399,0.029165,0.11732,-0.487527,-0.046938,-0.11757,-0.096538,-0.020728,0.041195,0.065207,0.198541,0.039423,-0.435831,-0.289266,-0.154368,0.058944,-0.206147,-0.277566,'\'(6.266667-10.533333]\''
-0.04968,-0.362252,-0.125716,0.032691,0.120281,-0.488163,-0.044203,-0.116478,-0.092857,-0.018465,0.044911,0.070381,0.205297,0.04296,-0.435342,-0.288631,-0.15166,0.065271,-0.203136,-0.281015,'\'(6.266667-10.533333]\''
-0.046105,-0.362723,-0.121738,0.035042,0.12431,-0.486314,-0.042836,-0.107739,-0.089177,-0.012651,0.047389,0.072969,0.205297,0.046497,-0.433663,-0.287627,-0.142363,0.065334,-0.207556,-0.287067,'\'(6.266667-10.533333]\''
-0.039849,-0.36279,-0.116055,0.040918,0.12956,-0.48279,-0.036001,-0.107739,-0.084269,-0.007697,0.053583,0.078144,0.210364,0.052391,-0.432084,-0.285743,-0.140055,0.074998,-0.196602,-0.263969,'\'(6.266667-10.533333]\''
-0.034486,-0.358483,-0.108098,0.045619,0.135665,-0.481634,-0.033267,-0.104461,-0.080589,0.000179,0.0573,0.083318,0.213742,0.055928,-0.429025,-0.281995,-0.138913,0.081671,-0.190901,-0.259485,'\'(6.266667-10.533333]\''
-0.030017,-0.357557,-0.103552,0.046795,0.136337,-0.478746,-0.029165,-0.104461,-0.079362,0.002728,0.058538,0.084612,0.208675,0.058286,-0.426658,-0.28011,-0.136418,0.087809,-0.184944,-0.259182,'\'(6.266667-10.533333]\''
-0.027336,-0.357625,-0.098437,0.049145,0.139511,-0.476839,-0.027798,-0.101184,-0.076908,0.006566,0.059777,0.085906,0.208675,0.060644,-0.425474,-0.278165,-0.136538,0.097064,-0.176841,-0.244529,'\'(6.266667-10.533333]\''
-0.022867,-0.357002,-0.095027,0.052671,0.142899,-0.475799,-0.023697,-0.100092,-0.074455,0.00983,0.064732,0.09108,0.213742,0.064181,-0.423856,-0.276198,-0.133939,0.101093,-0.175176,-0.247607,'\'(6.266667-10.533333]\''
-0.019292,-0.355908,-0.090481,0.055022,0.144975,-0.473604,-0.018229,-0.103369,-0.070774,0.014212,0.065971,0.092374,0.208675,0.06536,-0.421932,-0.27415,-0.128934,0.107326,-0.165664,-0.240422,'\'(6.266667-10.533333]\''
-0.015717,-0.355151,-0.085366,0.062074,0.151233,-0.471582,-0.014127,-0.097907,-0.067094,0.016847,0.073404,0.10143,0.223876,0.073613,-0.419568,-0.272327,-0.127349,0.11466,-0.163069,-0.235301,'\'(6.266667-10.533333]\''
-0.011249,-0.352896,-0.081956,0.066775,0.155018,-0.469386,-0.008659,-0.09463,-0.062186,0.020112,0.077121,0.105311,0.227254,0.07715,-0.417131,-0.270074,-0.122514,0.121365,-0.158393,-0.223961,'\'(6.266667-10.533333]\''
-0.005886,-0.352156,-0.077978,0.070301,0.155475,-0.465573,-0.001823,-0.092445,-0.056052,0.021945,0.080837,0.109192,0.227254,0.080687,-0.411721,-0.268948,-0.117524,0.129833,-0.1525,-0.217068,'\'(6.266667-10.533333]\''
-0.003205,-0.352089,-0.074568,0.070301,0.156147,-0.466035,0.000911,-0.089168,-0.053599,0.024035,0.080837,0.109192,0.225565,0.081866,-0.411263,-0.268538,-0.116826,0.136916,-0.14792,-0.224708,'\'(6.266667-10.533333]\''
0.002158,-0.351954,-0.070021,0.075002,0.160787,-0.465978,0.01048,-0.078244,-0.045011,0.029391,0.085792,0.111779,0.227254,0.086582,-0.411199,-0.267575,-0.110327,0.143054,-0.134405,-0.206491,'\'(6.266667-10.533333]\''
0.00752,-0.351214,-0.066043,0.079703,0.166311,-0.464302,0.007746,-0.084798,-0.047465,0.035405,0.089509,0.11566,0.228943,0.091298,-0.409862,-0.266797,-0.109311,0.154512,-0.13418,-0.187574,'\'(6.266667-10.533333]\''
0.009308,-0.351012,-0.059792,0.080878,0.168692,-0.460778,0.009113,-0.079336,-0.045011,0.037439,0.090748,0.118247,0.230632,0.093656,-0.407826,-0.266592,-0.104299,0.162476,-0.127006,-0.189131,'\'(6.266667-10.533333]\''
0.011095,-0.349413,-0.055814,0.084404,0.171623,-0.460662,0.011848,-0.073874,-0.040104,0.040274,0.094464,0.120835,0.235699,0.096014,-0.405456,-0.266142,-0.089119,0.171007,-0.130081,-0.193349,'\'(-inf-6.266667]\''
0.01467,-0.351315,-0.051267,0.089105,0.176537,-0.458063,0.014582,-0.072782,-0.038877,0.043596,0.099419,0.127303,0.245833,0.101909,-0.402666,-0.265752,-0.081644,0.179065,-0.119896,-0.181936,'\'(-inf-6.266667]\''
0.017352,-0.349851,-0.046721,0.094982,0.182916,-0.456098,0.018683,-0.065135,-0.033969,0.047205,0.105614,0.135065,0.255967,0.106625,-0.398817,-0.264626,-0.072483,0.189327,-0.121017,-0.180566,'\'(-inf-6.266667]\''
0.023608,-0.350271,-0.041606,0.102034,0.187587,-0.455925,0.022784,-0.064043,-0.031516,0.050154,0.113046,0.141533,0.266101,0.113699,-0.395383,-0.264646,-0.062564,0.196441,-0.109743,-0.16641,'\'(-inf-6.266667]\''
0.026289,-0.350204,-0.036491,0.10556,0.189845,-0.455001,0.026886,-0.056396,-0.026608,0.052732,0.115524,0.144121,0.26779,0.117236,-0.391091,-0.26438,-0.055324,0.205035,-0.107181,-0.156931,'\'(-inf-6.266667]\''
0.029864,-0.350507,-0.030808,0.106735,0.193295,-0.453961,0.02962,-0.046565,-0.021701,0.057773,0.116763,0.145414,0.26779,0.119594,-0.387638,-0.264728,-0.046073,0.210795,-0.096452,-0.149986,'\'(-inf-6.266667]\''
0.034333,-0.350019,-0.025693,0.111436,0.197171,-0.451419,0.035088,-0.050934,-0.018021,0.061467,0.120479,0.149295,0.271168,0.12431,-0.384038,-0.264585,-0.038071,0.221372,-0.095171,-0.147315,'\'(-inf-6.266667]\''
0.03612,-0.350154,-0.020578,0.114962,0.198484,-0.448299,0.037822,-0.052027,-0.016794,0.0633,0.124196,0.15447,0.277924,0.125489,-0.378206,-0.264626,-0.027942,0.229493,-0.090559,-0.144629,'\'(-inf-6.266667]\''
0.04327,-0.349144,-0.0166,0.119663,0.202635,-0.449628,0.041924,-0.058581,-0.015567,0.067768,0.129151,0.159645,0.277924,0.131384,-0.373156,-0.264482,-0.015085,0.238339,-0.090623,-0.139566,'\'(-inf-6.266667]\''
0.047739,-0.349565,-0.012054,0.124364,0.206267,-0.451534,0.047392,-0.042195,-0.01066,0.072264,0.132868,0.164819,0.281302,0.1361,-0.367817,-0.265302,-0.004991,0.24561,-0.093858,-0.154407,'\'(-inf-6.266667]\''
0.053102,-0.349363,-0.008075,0.12789,0.210052,-0.448761,0.047392,-0.038918,-0.006979,0.076875,0.136584,0.167407,0.281302,0.140816,-0.363577,-0.265445,0.00645,0.250899,-0.084698,-0.143375,'\'(-inf-6.266667]\''
0.058464,-0.348,-0.005234,0.134942,0.215455,-0.44541,0.047392,-0.033456,-0.004525,0.0814,0.144017,0.175169,0.291436,0.145532,-0.360052,-0.264913,0.01882,0.255117,-0.087548,-0.142691,'\'(-inf-6.266667]\''
0.062039,-0.343793,-0.001824,0.138468,0.21863,-0.445121,0.05286,-0.031271,-0.002072,0.085724,0.147733,0.177756,0.294814,0.150248,-0.355602,-0.265732,0.026733,0.256281,-0.074929,-0.12832,'\'(-inf-6.266667]\''
0.065614,-0.339637,0.002154,0.141994,0.220644,-0.444659,0.056962,-0.025809,0.004062,0.088961,0.15145,0.181637,0.298192,0.154964,-0.351389,-0.265957,0.031497,0.263396,-0.060869,-0.11618,'\'(-inf-6.266667]\''
0.069189,-0.336524,0.006132,0.144345,0.223239,-0.444024,0.067899,-0.024717,0.01265,0.091796,0.152689,0.182931,0.298192,0.156143,-0.346039,-0.265691,0.037687,0.266827,-0.065673,-0.122833,'\'(-inf-6.266667]\''
0.072764,-0.332889,0.011816,0.14787,0.227695,-0.444255,0.069266,-0.023624,0.01265,0.09655,0.156405,0.186812,0.30157,0.159679,-0.343336,-0.265711,0.041089,0.27372,-0.057026,-0.112549,'\'(-inf-6.266667]\''
0.076339,-0.330685,0.016362,0.150221,0.22913,-0.443793,0.070633,-0.019255,0.015104,0.098784,0.158883,0.188105,0.30157,0.162037,-0.340296,-0.266408,0.046965,0.279481,-0.052862,-0.111195,'\'(-inf-6.266667]\''
0.081702,-0.328783,0.019772,0.154922,0.234502,-0.443619,0.073367,-0.018162,0.018784,0.104512,0.163838,0.19328,0.306637,0.167932,-0.339024,-0.26737,0.053389,0.28436,-0.05978,-0.115062,'\'(-inf-6.266667]\''
0.085277,-0.32769,0.02375,0.157273,0.234441,-0.442175,0.076101,-0.0127,0.021238,0.106688,0.165077,0.19328,0.304948,0.169111,-0.337177,-0.268026,0.056063,0.288924,-0.045015,-0.099657,'\'(-inf-6.266667]\''
0.087065,-0.326074,0.02716,0.159623,0.23844,-0.438304,0.081569,-0.022532,0.022465,0.109724,0.168793,0.197161,0.310015,0.172648,-0.336134,-0.269378,0.056051,0.293646,-0.033646,-0.097112,'\'(-inf-6.266667]\''
0.092427,-0.322978,0.032275,0.169026,0.243079,-0.440673,0.096608,0.002593,0.03964,0.111872,0.177465,0.206217,0.325215,0.18208,-0.332653,-0.270197,0.062221,0.293835,-0.041749,-0.098361,'\'(-inf-6.266667]\''
0.096896,-0.320639,0.035116,0.172552,0.246376,-0.444139,0.091139,-0.007238,0.033506,0.114965,0.18242,0.211391,0.326904,0.185617,-0.330795,-0.271221,0.062555,0.30438,-0.028009,-0.082255,'\'(-inf-6.266667]\''
0.100471,-0.316416,0.037958,0.178428,0.252694,-0.441366,0.082937,-0.005054,0.029826,0.118774,0.188615,0.21786,0.338727,0.191512,-0.327391,-0.270381,0.061412,0.312565,-0.019265,-0.078205,'\'(-inf-6.266667]\''
0.104046,-0.314598,0.041368,0.18548,0.258982,-0.439691,0.108911,0.000408,0.048228,0.123958,0.194809,0.225622,0.348861,0.197407,-0.326358,-0.269931,0.064347,0.316531,-0.012571,-0.069614,'\'(-inf-6.266667]\''
0.109408,-0.312596,0.044778,0.189006,0.262615,-0.439922,0.111646,0.003685,0.050682,0.129514,0.198525,0.230797,0.35055,0.203302,-0.325058,-0.271631,0.065562,0.325849,-0.010201,-0.059879,'\'(-inf-6.266667]\''
0.112983,-0.310425,0.048187,0.192532,0.262584,-0.437958,0.117114,0.01024,0.058043,0.132406,0.201003,0.233384,0.352239,0.203302,-0.323195,-0.271897,0.066757,0.333183,-0.008087,-0.068674,'\'(-inf-6.266667]\''
0.118346,-0.307969,0.051597,0.196058,0.267041,-0.435993,0.123949,0.015702,0.06295,0.137562,0.205958,0.234678,0.352239,0.206839,-0.325485,-0.272471,0.072051,0.340454,-0.004212,-0.061603,'\'(-inf-6.266667]\''
0.122815,-0.306808,0.054439,0.198408,0.269055,-0.435358,0.126684,0.020071,0.066631,0.141313,0.208436,0.237265,0.352239,0.209197,-0.320673,-0.274683,0.075299,0.344137,0.002065,-0.061504,'\'(-inf-6.266667]\''
0.127283,-0.305226,0.057849,0.204285,0.275038,-0.434722,0.130785,0.026626,0.070311,0.146726,0.21463,0.245027,0.360684,0.215092,-0.316854,-0.275789,0.076667,0.349961,0.004403,-0.04903,'\'(-inf-6.266667]\''
0.130859,-0.301962,0.061259,0.210161,0.281448,-0.434433,0.128051,0.027718,0.070311,0.152397,0.219585,0.251495,0.369129,0.218629,-0.31213,-0.277939,0.08077,0.356729,0.009848,-0.037048,'\'(-inf-6.266667]\''
0.135327,-0.298209,0.065237,0.216038,0.285233,-0.431834,0.134886,0.029903,0.075218,0.156091,0.225779,0.257964,0.379263,0.224524,-0.308269,-0.27839,0.081189,0.364409,0.014428,-0.038924,'\'(-inf-6.266667]\''
0.138902,-0.294255,0.066373,0.220739,0.287705,-0.427212,0.144456,0.034272,0.083806,0.158869,0.230734,0.264432,0.38433,0.230419,-0.301601,-0.278841,0.081757,0.370107,0.021762,-0.036191,'\'(-inf-6.266667]\''
0.144265,-0.291563,0.069783,0.224265,0.290483,-0.428656,0.149924,0.052843,0.08994,0.161876,0.234451,0.267019,0.386019,0.235135,-0.297677,-0.278861,0.085007,0.376245,0.030538,-0.023471,'\'(-inf-6.266667]\''
0.146946,-0.289594,0.072057,0.227791,0.29494,-0.430158,0.151291,0.05612,0.093621,0.16663,0.238167,0.269607,0.391086,0.238672,-0.294753,-0.279353,0.089029,0.384146,0.034477,-0.015826,'\'(-inf-6.266667]\''
0.150521,-0.287087,0.076603,0.228966,0.297198,-0.428772,0.155393,0.052843,0.096075,0.171213,0.239406,0.269607,0.386019,0.239851,-0.287488,-0.280643,0.090243,0.392394,0.039474,-0.007454,'\'(-inf-6.266667]\''
0.154096,-0.284428,0.079445,0.230141,0.299305,-0.426923,0.155393,0.059398,0.098528,0.175595,0.240645,0.269607,0.382641,0.24103,-0.280266,-0.282404,0.095453,0.400861,0.039378,-0.024511,'\'(-inf-6.266667]\''
0.156777,-0.282375,0.082854,0.230141,0.298328,-0.426056,0.160861,0.065952,0.104662,0.177256,0.240645,0.268313,0.379263,0.24103,-0.273803,-0.282425,0.10098,0.408038,0.040531,-0.025316,'\'(-inf-6.266667]\''
0.161246,-0.279548,0.084559,0.233667,0.301075,-0.424439,0.162228,0.070321,0.107116,0.183356,0.244361,0.272194,0.380952,0.244567,-0.267163,-0.281954,0.110288,0.415373,0.049787,-0.01245,'\'(-inf-6.266667]\''
0.165715,-0.276536,0.086264,0.236018,0.302357,-0.422532,0.164962,0.070321,0.108343,0.185962,0.2456,0.272194,0.379263,0.246925,-0.263281,-0.282077,0.112344,0.423904,0.06737,0.001931,'\'(-inf-6.266667]\''
0.167502,-0.270899,0.088538,0.240719,0.304066,-0.421839,0.174532,0.079061,0.116931,0.187423,0.250556,0.276075,0.387708,0.250462,-0.259953,-0.28007,0.115434,0.420126,0.0789,0.002637,'\'(-inf-6.266667]\''
0.171971,-0.268257,0.090811,0.24542,0.309255,-0.421203,0.174532,0.085615,0.119384,0.192807,0.255511,0.282543,0.392775,0.256357,-0.253385,-0.28179,0.123598,0.434165,0.079284,0.009895,'\'(-inf-6.266667]\''
0.17644,-0.265027,0.094221,0.248946,0.312064,-0.419875,0.190937,0.092169,0.131653,0.196473,0.259227,0.285131,0.392775,0.259894,-0.25003,-0.282056,0.128177,0.443294,0.089052,0.008803,'\'(-inf-6.266667]\''
0.180909,-0.261241,0.098767,0.251297,0.312186,-0.415888,0.195038,0.097631,0.135333,0.199279,0.261705,0.286424,0.391086,0.261073,-0.247691,-0.280971,0.132156,0.451038,0.096931,0.005761,'\'(-inf-6.266667]\''
0.18359,-0.258195,0.103882,0.252472,0.311728,-0.410977,0.200507,0.107463,0.142694,0.200339,0.261705,0.285131,0.391086,0.263431,-0.246244,-0.280684,0.138904,0.458907,0.107949,0.013694,'\'(-inf-6.266667]\''
0.187165,-0.254274,0.105587,0.254823,0.312796,-0.412075,0.197773,0.109648,0.141467,0.20369,0.264183,0.286424,0.389397,0.263431,-0.244063,-0.280336,0.143406,0.464574,0.106219,0.017446,'\'(-inf-6.266667]\''
0.188953,-0.248772,0.109565,0.254823,0.311667,-0.413693,0.204608,0.112925,0.148828,0.205838,0.264183,0.283837,0.386019,0.263431,-0.236578,-0.279557,0.152549,0.470554,0.118806,0.016359,'\'(-inf-6.266667]\''
0.193421,-0.244498,0.112975,0.254823,0.312002,-0.412191,0.210076,0.118387,0.152509,0.21042,0.264183,0.282543,0.379263,0.263431,-0.228139,-0.279742,0.159763,0.475811,0.127486,0.022332,'\'(-inf-6.266667]\''
0.19789,-0.24014,0.11809,0.257173,0.314689,-0.4104,0.205975,0.121664,0.152509,0.213398,0.265421,0.283837,0.377574,0.265789,-0.22449,-0.279824,0.162218,0.482233,0.137959,0.040727,'\'(-inf-6.266667]\''
0.201465,-0.236068,0.123205,0.261875,0.317649,-0.409764,0.212811,0.124941,0.158643,0.217207,0.271615,0.289012,0.38433,0.271683,-0.224048,-0.279291,0.162591,0.494132,0.152211,0.043789,'\'(-inf-6.266667]\''
0.204146,-0.232753,0.126614,0.264225,0.315818,-0.408089,0.208709,0.130403,0.157416,0.216148,0.274093,0.290305,0.386019,0.274041,-0.223295,-0.279865,0.162525,0.500648,0.165374,0.055348,'\'(-inf-6.266667]\''
0.206828,-0.229438,0.130593,0.268926,0.32116,-0.405604,0.197773,0.140235,0.154962,0.221475,0.27781,0.294186,0.391086,0.277578,-0.220764,-0.28011,0.16463,0.509525,0.166655,0.046694,'\'(-inf-6.266667]\''
0.210403,-0.225248,0.135139,0.271277,0.324151,-0.40416,0.214178,0.145697,0.168458,0.225599,0.280287,0.296774,0.392775,0.281115,-0.217239,-0.279947,0.169207,0.514341,0.175783,0.037502,'\'(-inf-6.266667]\''
0.213978,-0.218686,0.139686,0.272452,0.3229,-0.402023,0.22238,0.139142,0.169684,0.226343,0.280287,0.294186,0.389397,0.281115,-0.215542,-0.279127,0.174743,0.520605,0.190708,0.05065,'\'(-inf-6.266667]\''
0.217553,-0.211921,0.143664,0.277154,0.327661,-0.399712,0.223747,0.154436,0.177045,0.231556,0.285243,0.298067,0.394464,0.284652,-0.2113,-0.277878,0.178747,0.527436,0.19753,0.070853,'\'(-inf-6.266667]\''
0.222022,-0.205409,0.146505,0.279504,0.327753,-0.396419,0.225114,0.157713,0.179499,0.233417,0.28772,0.299361,0.392775,0.28701,-0.20081,-0.276055,0.184549,0.536439,0.203039,0.078263,'\'(-inf-6.266667]\''
0.225597,-0.200529,0.149915,0.28303,0.329951,-0.391739,0.227849,0.163175,0.184406,0.235966,0.291437,0.303242,0.397842,0.291726,-0.19482,-0.276034,0.183087,0.546291,0.219661,0.091578,'\'(-inf-6.266667]\''
0.227384,-0.195919,0.153325,0.286556,0.333003,-0.390872,0.23195,0.164267,0.185633,0.237828,0.295153,0.308417,0.402909,0.294084,-0.191103,-0.2754,0.185511,0.551233,0.217932,0.092252,'\'(-inf-6.266667]\''
0.230065,-0.192082,0.157872,0.286556,0.331782,-0.391739,0.237418,0.164267,0.190541,0.239718,0.293914,0.305829,0.396153,0.292905,-0.189687,-0.275686,0.192636,0.563384,0.227636,0.108332,'\'(-inf-6.266667]\''
0.234534,-0.190938,0.161281,0.287731,0.33343,-0.389081,0.245621,0.173006,0.196675,0.243212,0.296392,0.307123,0.396153,0.295263,-0.186174,-0.275707,0.201714,0.568798,0.237501,0.115339,'\'(-inf-6.266667]\''
0.239003,-0.186092,0.165828,0.30066,0.343961,-0.386655,0.252456,0.177376,0.204036,0.246076,0.30878,0.322647,0.423177,0.309411,-0.183049,-0.274683,0.204657,0.578714,0.249895,0.125483,'\'(-inf-6.266667]\''
0.24079,-0.181936,0.169238,0.301835,0.345396,-0.383535,0.260659,0.192669,0.215077,0.249684,0.310019,0.322647,0.421488,0.31059,-0.177957,-0.274232,0.210894,0.584915,0.259504,0.13457,'\'(-inf-6.266667]\''
0.242578,-0.178251,0.173216,0.301835,0.346067,-0.381571,0.268862,0.200316,0.223665,0.251202,0.310019,0.322647,0.419799,0.311769,-0.174543,-0.275051,0.213969,0.593823,0.268311,0.139597,'\'(-inf-6.266667]\''
0.24794,-0.17364,0.178331,0.310062,0.351897,-0.378798,0.275697,0.203593,0.228572,0.255613,0.317452,0.331703,0.431622,0.318843,-0.170537,-0.275195,0.221875,0.603173,0.271866,0.149704,'\'(-inf-6.266667]\''
0.251515,-0.170729,0.182877,0.314763,0.355896,-0.377296,0.279798,0.202501,0.231026,0.25862,0.323646,0.336877,0.440067,0.324738,-0.161835,-0.275174,0.224646,0.608115,0.282884,0.163191,'\'(-inf-6.266667]\''
0.255984,-0.16802,0.187424,0.32299,0.363802,-0.374176,0.286634,0.21124,0.239614,0.26429,0.332318,0.347227,0.455268,0.33417,-0.151196,-0.275727,0.232281,0.613812,0.293485,0.169384,'\'(-inf-6.266667]\''
0.259559,-0.163998,0.190834,0.326516,0.367526,-0.369612,0.286634,0.219979,0.242067,0.269188,0.336034,0.352401,0.458646,0.337707,-0.13931,-0.274334,0.240144,0.625963,0.298161,0.168271,'\'(-inf-6.266667]\''
0.265816,-0.160785,0.19538,0.330042,0.36951,-0.359155,0.289368,0.219979,0.244521,0.273512,0.338512,0.353695,0.455268,0.340065,-0.131801,-0.272819,0.25603,0.633329,0.308634,0.185604,'\'(-inf-6.266667]\''
0.268497,-0.156157,0.201063,0.334743,0.374668,-0.341996,0.296203,0.227626,0.250655,0.277235,0.343467,0.360163,0.465402,0.34596,-0.110374,-0.270463,0.267179,0.642646,0.334256,0.212663,'\'(-inf-6.266667]\''
0.275647,-0.151395,0.205041,0.34062,0.380712,-0.34812,0.304406,0.233088,0.258016,0.283794,0.349661,0.364044,0.46878,0.353034,-0.098159,-0.270484,0.273897,0.648312,0.329004,0.203435,'\'(-inf-6.266667]\''
0.280116,-0.149157,0.210156,0.348847,0.387733,-0.361928,0.30714,0.24292,0.26415,0.289292,0.357094,0.374394,0.483981,0.361287,-0.092426,-0.273249,0.281504,0.652436,0.349341,0.225074,'\'(-inf-6.266667]\''
0.285478,-0.143975,0.216976,0.3606,0.397317,-0.362448,0.311242,0.251659,0.269058,0.292586,0.370721,0.388624,0.509316,0.374256,-0.077521,-0.273474,0.286006,0.664555,0.360071,0.242491,'\'(-inf-6.266667]\''
0.289053,-0.134535,0.220954,0.359425,0.395455,-0.361581,0.319444,0.263675,0.277645,0.293416,0.368243,0.386037,0.499182,0.373077,-0.06448,-0.271815,0.298295,0.673873,0.35943,0.216614,'\'(-inf-6.266667]\''
0.293522,-0.136571,0.225501,0.36295,0.397317,-0.360426,0.318077,0.262583,0.277645,0.296968,0.37196,0.388624,0.499182,0.375435,-0.051025,-0.274007,0.306015,0.682215,0.367661,0.226673,'\'(-inf-6.266667]\''
0.301566,-0.133559,0.231752,0.374703,0.404918,-0.359617,0.329014,0.263675,0.28378,0.302008,0.384348,0.402855,0.517761,0.389582,-0.039689,-0.274478,0.319476,0.680106,0.372337,0.23586,'\'(-inf-6.266667]\''
0.308716,-0.13058,0.236867,0.38058,0.410565,-0.358346,0.333115,0.273507,0.289914,0.308338,0.390542,0.409323,0.521139,0.394298,-0.03116,-0.274294,0.323031,0.683851,0.373875,0.225059,'\'(-inf-6.266667]\''
0.314078,-0.125835,0.243687,0.38058,0.410412,-0.358808,0.337216,0.281153,0.296048,0.313235,0.389303,0.406736,0.511005,0.393119,-0.023979,-0.274969,0.33304,0.685111,0.385212,0.23134,'\'(-inf-6.266667]\''
0.319441,-0.119811,0.248801,0.391158,0.420119,-0.358577,0.342685,0.2888,0.302182,0.318791,0.400453,0.420966,0.531273,0.406088,-0.017768,-0.275072,0.333615,0.689706,0.403532,0.250351,'\'(-inf-6.266667]\''
0.326591,-0.117102,0.253348,0.394684,0.423201,-0.35771,0.353621,0.294262,0.311997,0.325235,0.40293,0.42226,0.526206,0.408446,-0.018567,-0.275277,0.343526,0.690242,0.402155,0.249389,'\'(-inf-6.266667]\''
0.330166,-0.115184,0.256758,0.398209,0.426376,-0.354822,0.35909,0.306278,0.318131,0.32827,0.407886,0.426141,0.529584,0.413162,-0.013026,-0.276567,0.351908,0.697104,0.404205,0.241608,'\'(-inf-6.266667]\''
0.336422,-0.107629,0.261873,0.402911,0.429856,-0.3502,0.356356,0.305186,0.316904,0.333282,0.411602,0.431315,0.531273,0.416699,-0.009226,-0.277345,0.352431,0.703714,0.414454,0.238933,'\'(-inf-6.266667]\''
0.35251,-0.099097,0.270966,0.414664,0.440875,-0.349969,0.353621,0.315017,0.319358,0.346428,0.42399,0.445546,0.534651,0.430847,-0.006857,-0.275686,0.35445,0.704533,0.414934,0.262673,'\'(-inf-6.266667]\''
0.357872,-0.092585,0.277217,0.419365,0.444416,-0.351586,0.363191,0.315017,0.325492,0.351268,0.428946,0.449427,0.538029,0.433205,0.000077,-0.274765,0.344512,0.709003,0.416055,0.261346,'\'(-inf-6.266667]\''
0.361447,-0.08286,0.283468,0.42054,0.444629,-0.349738,0.36866,0.322664,0.332853,0.355048,0.428946,0.446839,0.532962,0.434384,0.007894,-0.273187,0.337158,0.709978,0.414197,0.246677,'\'(-inf-6.266667]\''
0.365022,-0.07204,0.289151,0.424066,0.448658,-0.348236,0.374128,0.310648,0.332853,0.358599,0.433901,0.452014,0.539718,0.437921,0.015602,-0.27159,0.33522,0.705603,0.412692,0.270663,'\'(-inf-6.266667]\''
0.371279,-0.07236,0.294266,0.434644,0.454702,-0.345809,0.38233,0.321572,0.342667,0.362924,0.443811,0.463657,0.556608,0.449711,0.022741,-0.271221,0.330399,0.708405,0.4223,0.277765,'\'(-inf-6.266667]\''
0.378429,-0.065124,0.300518,0.439345,0.458762,-0.34396,0.389166,0.329219,0.351255,0.367907,0.448767,0.466244,0.556608,0.454427,0.025175,-0.269644,0.318182,0.709821,0.42371,0.270998,'\'(-inf-6.266667]\''
0.38111,-0.060093,0.302791,0.435819,0.457999,-0.339974,0.400103,0.327034,0.357389,0.372031,0.443811,0.458482,0.539718,0.448532,0.026492,-0.267043,0.306214,0.70979,0.428514,0.263807,'\'(-inf-6.266667]\''
0.386472,-0.054422,0.311316,0.435819,0.457724,-0.336277,0.404204,0.335773,0.362297,0.376127,0.443811,0.454601,0.531273,0.448532,0.026965,-0.264728,0.303236,0.710356,0.441357,0.27719,'\'(-inf-6.266667]\''
0.387366,-0.035677,0.31643,0.444046,0.449879,-0.321949,0.409672,0.332496,0.365977,0.362008,0.452483,0.464951,0.551541,0.456785,0.03298,-0.253361,0.296562,0.706421,0.412372,0.240574,'\'(-inf-6.266667]\''
0.390048,-0.037579,0.322682,0.43817,0.457968,-0.328882,0.411039,0.337958,0.369658,0.378704,0.44505,0.453308,0.529584,0.448532,0.033709,-0.261554,0.271026,0.701542,0.470214,0.344983,'\'(-inf-6.266667]\''
0.397198,-0.030225,0.328933,0.436994,0.456412,-0.326397,0.419242,0.345604,0.379472,0.383687,0.443811,0.446839,0.511005,0.447353,0.046175,-0.260468,0.251947,0.697198,0.461983,0.300047,'\'(-inf-6.266667]\''
0.401666,-0.021307,0.33348,0.435819,0.454031,-0.319869,0.426078,0.354344,0.386833,0.386236,0.441334,0.441665,0.495804,0.444995,0.058264,-0.257969,0.242501,0.69575,0.459388,0.28055,'\'(-inf-6.266667]\''
0.407923,-0.017874,0.342573,0.439345,0.456106,-0.318136,0.431546,0.358713,0.391741,0.388442,0.44505,0.442958,0.495804,0.448532,0.057761,-0.256433,0.239793,0.695971,0.463072,0.284903,'\'(-inf-6.266667]\''
0.414179,-0.012944,0.345983,0.442871,0.459983,-0.317674,0.439748,0.36199,0.397875,0.393998,0.447528,0.444252,0.495804,0.452069,0.063451,-0.256453,0.231262,0.694712,0.472167,0.293965,'\'(-inf-6.266667]\''
0.417754,-0.010959,0.351666,0.448747,0.46624,-0.315132,0.445217,0.369637,0.401555,0.398666,0.454961,0.452014,0.507627,0.457964,0.066362,-0.2559,0.228139,0.697198,0.471719,0.289836,'\'(-inf-6.266667]\''
0.423116,-0.010942,0.359054,0.45815,0.475916,-0.312589,0.447951,0.375099,0.405236,0.403907,0.463633,0.463657,0.524517,0.468575,0.072003,-0.257211,0.224699,0.696915,0.484018,0.305869,'\'(-inf-6.266667]\''
0.427585,-0.006533,0.365874,0.4605,0.477443,-0.309585,0.457521,0.375099,0.410143,0.408747,0.46611,0.463657,0.51945,0.472112,0.076769,-0.25672,0.229405,0.700063,0.47505,0.294472,'\'(-inf-6.266667]\''
0.430266,-0.002326,0.369852,0.461676,0.480342,-0.306466,0.461622,0.380561,0.41505,0.413186,0.467349,0.464951,0.51945,0.47447,0.091484,-0.2559,0.234612,0.702266,0.482801,0.302101,'\'(-inf-6.266667]\''
0.435629,0.004859,0.380081,0.466377,0.48547,-0.303404,0.465723,0.392577,0.421185,0.419401,0.471066,0.470125,0.522828,0.479186,0.102565,-0.254712,0.242408,0.701196,0.498142,0.321619,'\'(-inf-6.266667]\''
0.441885,0.01196,0.384628,0.472253,0.490049,-0.303115,0.471192,0.392577,0.426092,0.424384,0.47726,0.4753,0.527895,0.48626,0.119288,-0.25717,0.245308,0.703462,0.501537,0.330623,'\'(-inf-6.266667]\''
0.446354,0.016015,0.389743,0.475779,0.494261,-0.302768,0.475293,0.400224,0.432226,0.430054,0.479737,0.477887,0.527895,0.488618,0.139126,-0.255327,0.256761,0.702613,0.490743,0.305435,'\'(-inf-6.266667]\''
0.451717,0.023536,0.399404,0.48048,0.498535,-0.301901,0.487597,0.401317,0.439587,0.43478,0.484693,0.483062,0.532962,0.494512,0.163917,-0.253709,0.257952,0.708499,0.500224,0.315239,'\'(-inf-6.266667]\''
0.457973,0.032118,0.40736,0.484006,0.500855,-0.298088,0.491698,0.405686,0.443268,0.439104,0.488409,0.485649,0.532962,0.498049,0.182914,-0.252562,0.260509,0.709758,0.506885,0.317684,'\'(-inf-6.266667]\''
0.463335,0.035702,0.412475,0.487532,0.503113,-0.291907,0.498534,0.424257,0.454309,0.444231,0.490887,0.488237,0.529584,0.501586,0.200984,-0.250391,0.27084,0.707964,0.522195,0.334605,'\'(-inf-6.266667]\''
0.469592,0.041221,0.415885,0.496935,0.510134,-0.291849,0.504002,0.414425,0.455536,0.449071,0.500797,0.49988,0.546474,0.513376,0.215601,-0.248936,0.269588,0.712686,0.521874,0.345114,'\'(-inf-6.266667]\''
0.47406,0.047296,0.41759,0.508688,0.520054,-0.290867,0.510837,0.42098,0.459216,0.456145,0.513185,0.516697,0.57012,0.523987,0.23409,-0.246704,0.280865,0.712434,0.514284,0.324415,'\'(-inf-6.266667]\''
0.481211,0.050695,0.419863,0.512214,0.526128,-0.288382,0.512205,0.423164,0.462897,0.465596,0.516902,0.523166,0.568431,0.527524,0.243189,-0.246479,0.284606,0.708373,0.527767,0.342606,'\'(-inf-6.266667]\''
0.482104,0.056938,0.423273,0.503986,0.522099,-0.285898,0.510837,0.428626,0.465351,0.469405,0.50823,0.510229,0.543096,0.518092,0.255865,-0.244287,0.284942,0.708971,0.538913,0.347183,'\'(-inf-6.266667]\''
0.490148,0.067,0.430093,0.500461,0.519383,-0.28353,0.51904,0.434088,0.472711,0.476851,0.503275,0.498586,0.514383,0.513376,0.269715,-0.240436,0.279319,0.71064,0.546536,0.350141,'\'(-inf-6.266667]\''
0.491936,0.073209,0.435208,0.502811,0.521947,-0.282778,0.523141,0.437365,0.477619,0.479572,0.505753,0.503761,0.51945,0.514555,0.280444,-0.237937,0.274839,0.711741,0.559283,0.371316,'\'(6.266667-10.533333]\''
0.497298,0.081118,0.442596,0.509863,0.528906,-0.281276,0.52861,0.434088,0.481299,0.485214,0.511947,0.510229,0.529584,0.521629,0.295497,-0.236606,0.270465,0.714197,0.570076,0.384568,'\'(-inf-6.266667]\''
0.500873,0.090861,0.44771,0.519265,0.536934,-0.27937,0.531344,0.43955,0.48498,0.490684,0.521857,0.523166,0.548163,0.531061,0.320014,-0.234783,0.263771,0.713315,0.591342,0.402257,'\'(-inf-6.266667]\''
0.506236,0.08625,0.456235,0.526317,0.544382,-0.279254,0.538179,0.442827,0.489887,0.496354,0.52929,0.532221,0.559986,0.539314,0.327894,-0.234619,0.267415,0.716683,0.584296,0.398751,'\'(-inf-6.266667]\''
0.511598,0.084618,0.459645,0.523967,0.544687,-0.277117,0.538179,0.43955,0.48866,0.502598,0.526812,0.525753,0.543096,0.535777,0.315088,-0.234496,0.274485,0.72279,0.588204,0.395009,'\'(-inf-6.266667]\''
0.513386,0.085543,0.465328,0.525142,0.547709,-0.273766,0.547749,0.441735,0.494794,0.507295,0.528051,0.525753,0.543096,0.534598,0.3089,-0.23423,0.279637,0.724207,0.602104,0.401426,'\'(-inf-6.266667]\''
0.516961,0.085257,0.474421,0.531018,0.55299,-0.268682,0.550483,0.442827,0.497248,0.51182,0.533007,0.532221,0.551541,0.539314,0.312855,-0.232776,0.281987,0.727197,0.605306,0.408058,'\'(-inf-6.266667]\''
0.523217,0.086637,0.478968,0.540421,0.562269,-0.270415,0.554585,0.450474,0.502155,0.518808,0.542917,0.543865,0.566742,0.551104,0.323277,-0.232817,0.283113,0.732045,0.613217,0.414804,'\'(-inf-6.266667]\''
0.526792,0.093317,0.486924,0.545122,0.567397,-0.27105,0.558686,0.460306,0.50829,0.523018,0.547872,0.55292,0.576876,0.55582,0.338315,-0.229663,0.298671,0.73472,0.618182,0.424848,'\'(-inf-6.266667]\''
0.533048,0.099392,0.494312,0.549823,0.571121,-0.270184,0.562787,0.459213,0.513197,0.526225,0.552828,0.555508,0.580254,0.560536,0.359261,-0.228167,0.309945,0.742716,0.632178,0.453882,'\'(-inf-6.266667]\''
0.538411,0.106308,0.5017,0.553349,0.575608,-0.267642,0.569623,0.461398,0.515651,0.533213,0.555305,0.554214,0.575187,0.562894,0.389582,-0.227328,0.319694,0.749924,0.63016,0.44284,'\'(-inf-6.266667]\''
0.54288,0.119231,0.506246,0.562751,0.583483,-0.265446,0.57099,0.463583,0.518104,0.537566,0.565216,0.567151,0.595455,0.572326,0.412646,-0.227225,0.333353,0.756409,0.643131,0.462332,'\'(-inf-6.266667]\''
0.55003,0.119601,0.513066,0.570979,0.590412,-0.262153,0.576458,0.460306,0.520558,0.543094,0.573888,0.576206,0.607278,0.580579,0.427094,-0.2253,0.347613,0.759274,0.630416,0.452084,'\'(-inf-6.266667]\''
0.554498,0.121822,0.518749,0.573329,0.592671,-0.25834,0.577825,0.461398,0.523012,0.548621,0.575126,0.5775,0.602211,0.581758,0.429115,-0.225689,0.365595,0.760659,0.652067,0.465431,'\'(-inf-6.266667]\''
0.558967,0.126298,0.524432,0.574504,0.593922,-0.258398,0.588762,0.463583,0.529146,0.552974,0.576365,0.578794,0.598833,0.584116,0.442493,-0.222924,0.380697,0.762107,0.661259,0.462875,'\'(-inf-6.266667]\''
0.563436,0.132086,0.530684,0.581556,0.598745,-0.255509,0.602433,0.465768,0.53896,0.557499,0.582559,0.585262,0.607278,0.592369,0.458949,-0.221244,0.379022,0.766388,0.677369,0.495557,'\'(-inf-6.266667]\''
0.567011,0.13673,0.536935,0.593309,0.609245,-0.254527,0.598332,0.47123,0.540187,0.561108,0.594948,0.60208,0.63768,0.604158,0.475494,-0.221285,0.392722,0.775642,0.683262,0.50094,'\'(-inf-6.266667]\''
0.574161,0.141206,0.540913,0.603887,0.618708,-0.250714,0.6038,0.47123,0.543868,0.568411,0.607336,0.617604,0.656259,0.615948,0.492639,-0.218848,0.409609,0.778192,0.687778,0.511621,'\'(-inf-6.266667]\''
0.577736,0.144269,0.547165,0.603887,0.62002,-0.247363,0.607901,0.46686,0.546321,0.573279,0.607336,0.61631,0.649503,0.615948,0.508398,-0.218479,0.412271,0.781875,0.704304,0.533318,'\'(-inf-6.266667]\''
0.581311,0.145329,0.553416,0.602712,0.623256,-0.247999,0.61337,0.463583,0.546321,0.582587,0.604858,0.612429,0.639369,0.61359,0.522086,-0.220302,0.430155,0.788076,0.698987,0.515551,'\'(-inf-6.266667]\''
0.587567,0.146692,0.561941,0.612114,0.630124,-0.249328,0.621572,0.473414,0.556136,0.588372,0.61353,0.621485,0.651192,0.624201,0.538576,-0.219483,0.44241,0.793616,0.710197,0.536642,'\'(-inf-6.266667]\''
0.597399,0.148257,0.569329,0.620341,0.637541,-0.248981,0.621572,0.479969,0.55859,0.595589,0.622202,0.627953,0.657948,0.633633,0.563664,-0.219524,0.451498,0.796418,0.714265,0.541193,'\'(-inf-6.266667]\''
0.601867,0.150545,0.575012,0.627393,0.644501,-0.247826,0.624306,0.482154,0.564724,0.601145,0.629635,0.639596,0.669771,0.639528,0.581018,-0.222084,0.460772,0.805767,0.730791,0.556583,'\'(-inf-6.266667]\''
0.605443,0.153439,0.581264,0.626218,0.645905,-0.247306,0.633876,0.478876,0.568404,0.605871,0.628396,0.638302,0.661326,0.63717,0.589333,-0.220528,0.463763,0.810017,0.7273,0.546701,'\'(-inf-6.266667]\''
0.60723,0.158925,0.586947,0.627393,0.647461,-0.244821,0.635243,0.485431,0.573312,0.609623,0.628396,0.638302,0.659637,0.639528,0.610497,-0.21764,0.460456,0.817697,0.749815,0.598885,'\'(-inf-6.266667]\''
0.61438,0.164293,0.594335,0.641497,0.658023,-0.24355,0.639344,0.49417,0.578219,0.616009,0.643262,0.657707,0.686661,0.654855,0.637455,-0.219913,0.456407,0.82818,0.768359,0.610956,'\'(-inf-6.266667]\''
