@relation '2025-08-MD-weka.filters.unsupervised.attribute.Discretize-B3-M-1.0-R25-precision6-weka.filters.unsupervised.attribute.Reorder-R1,2,3,4,5,6,7,8,9,10,11,12,13,14,15,16,17,18,19,20,21,22,23,24,26,27,28,29,30,31,32,33,34,35,36,37,38,39,40,41,42,43,44,45,46,47,48,49,50,51,52,53,54,55,56,57,58,59,60,61,62,63,64,65,66,67,68,69,70,71,72,73,74,75,76,77,78,79,80,81,82,83,84,85,86,87,88,89,90,91,92,93,94,95,96,97,98,99,100,101,102,103,104,105,106,107,108,109,110,111,112,113,114,115,116,117,118,119,120,121,122,123,124,125,126,127,25-weka.filters.unsupervised.attribute.Discretize-B3-M-1.0-R25-precision6-weka.filters.unsupervised.attribute.Discretize-B3-M-1.0-Rlast-precision6-weka.filters.unsupervised.attribute.Discretize-B3-M-1.0-Rlast-precision6-weka.filters.unsupervised.attribute.Discretize-B3-M-1.0-R127-precision6-weka.filters.unsupervised.attribute.Discretize-B3-M-1.0-R127-precision6-weka.filters.unsupervised.attribute.Reorder-R1,2,3,4,5,6,7,8,9,10,11,12,13,14,15,16,17,18,19,20,21,22,23,24,25,26,27,28,29,30,31,32,33,34,35,36,37,38,39,40,41,42,43,44,45,46,47,48,49,50,51,52,53,54,55,56,57,58,59,60,61,62,63,64,65,66,67,68,69,70,71,72,73,74,75,76,77,78,79,80,81,82,83,84,85,86,87,88,89,90,91,92,93,94,95,96,97,98,99,100,101,102,103,104,105,106,107,108,109,110,111,112,113,114,115,116,117,118,119,120,121,122,123,124,125,127,126-weka.filters.unsupervised.attribute.Discretize-B3-M-1.0-R127-precision6-weka.filters.unsupervised.attribute.Discretize-B3-M-1.0-R126-precision6-weka.filters.unsupervised.attribute.Reorder-R1,2,3,4,5,6,7,8,9,10,11,12,13,14,15,16,17,18,19,20,21,22,23,24,25,26,27,28,29,30,31,32,33,34,35,36,37,38,39,40,41,42,43,44,45,46,47,48,49,50,51,52,53,54,55,56,57,58,59,60,61,62,63,64,65,66,67,68,69,70,71,72,73,74,75,76,77,78,79,80,81,82,83,84,85,86,87,88,89,90,91,92,93,94,95,96,97,98,99,100,101,102,103,104,105,106,107,108,109,110,111,112,113,114,115,116,117,118,119,120,121,122,123,124,125,127,126-weka.filters.unsupervised.attribute.Remove-R1-weka.filters.unsupervised.attribute.Remove-R57,93,121-weka.filters.unsupervised.attribute.Standardize-weka.filters.unsupervised.attribute.Remove-R84-86,122-weka.filters.unsupervised.attribute.ReplaceMissingValues-weka.filters.unsupervised.instance.RemoveRange-V-R1-560-weka.filters.unsupervised.attribute.Remove-V-R24,27,29,26,30,31,21,23,22,28,25,52,47,79,80,81,6,5,60,38,119'

@attribute UEMPMEAN {'\'(-inf-14.9]\'','\'(14.9-27.8]\'','\'(27.8-inf)\''}
@attribute UEMP15OV numeric
@attribute UEMP27OV numeric
@attribute UEMP5TO14 numeric
@attribute CLAIMSx numeric
@attribute PAYEMS numeric
@attribute HWIURATIO numeric
@attribute CE16OV numeric
@attribute CLF16OV numeric
@attribute UEMP15T26 numeric
@attribute UEMPLT5 numeric
@attribute PERMIT numeric
@attribute HOUST numeric
@attribute GS1 numeric
@attribute GS5 numeric
@attribute GS10 numeric
@attribute INDPRO numeric
@attribute RETAILx numeric
@attribute BUSINVx numeric
@attribute SRVPRD numeric
@attribute UNRATE {'\'(-inf-6.266667]\'','\'(6.266667-10.533333]\'','\'(10.533333-inf)\''}

@data
'\'(-inf-14.9]\'',-1.383827,-1.103204,-2.358978,-1.646155,-3.395097,3.909014,-3.805378,-3.838839,-1.754967,-3.563547,-3.612324,-3.740282,-0.856891,-1.116071,-1.291951,-2.328709,-1.163298,-1.325513,-2.700257,'\'(-inf-6.266667]\''
'\'(14.9-27.8]\'',-0.611815,-0.499792,-1.054439,-0.285111,-1.738937,-0.943511,-1.705657,-1.717807,-0.752586,-1.408532,0,0.595247,-0.445698,-0.464531,-0.596405,-1.700958,-1.070886,-1.206679,-1.640161,'\'(-inf-6.266667]\''
'\'(14.9-27.8]\'',-0.67786,-0.552789,-1.060043,-0.32308,-1.732309,-0.871275,-1.711706,-1.726768,-0.835976,-1.436002,0,0.621475,-0.391275,-0.480738,-0.617065,-1.68504,-1.070207,-1.206269,-1.63651,'\'(-inf-6.266667]\''
'\'(14.9-27.8]\'',-0.715046,-0.592158,-1.139615,-0.428813,-1.72202,-0.74734,-1.692538,-1.713686,-0.861503,-1.566484,0,0.498202,-0.370111,-0.471014,-0.606735,-1.673104,-1.069429,-1.205656,-1.631883,'\'(-inf-6.266667]\''
'\'(-inf-14.9]\'',-0.809951,-0.629257,-1.317813,-0.493963,-1.712331,-0.619138,-1.676066,-1.705224,-1.069127,-1.518412,0,0.419518,-0.336853,-0.428874,-0.561972,-1.655195,-1.069371,-1.204046,-1.628514,'\'(-inf-6.266667]\''
'\'(-inf-14.9]\'',-0.851022,-0.671654,-1.23824,-0.491443,-1.705103,-0.529631,-1.678335,-1.710251,-1.09976,-1.539014,0,0.178218,-0.264289,-0.35432,-0.496549,-1.64226,-1.068635,-1.203351,-1.624737,'\'(-inf-6.266667]\''
'\'(-inf-14.9]\'',-0.852132,-0.692096,-1.285311,-0.438576,-1.700968,-0.45678,-1.673403,-1.707129,-1.057214,-1.479954,0,0.191332,-0.231031,-0.305697,-0.486219,-1.641268,-1.067773,-1.202123,-1.623258,'\'(-inf-6.266667]\''
'\'(-inf-14.9]\'',-0.893202,-0.732223,-1.191169,-0.415243,-1.697086,-0.492742,-1.668077,-1.698979,-1.092953,-1.385182,0,0.306736,-0.13428,-0.279765,-0.46556,-1.66216,-1.067805,-1.201169,-1.621495,'\'(-inf-6.266667]\''
'\'(-inf-14.9]\'',-0.893202,-0.742065,-1.1172,-0.303511,-1.711857,-0.585508,-1.673567,-1.70232,-1.070829,-1.363207,0,-0.000134,-0.12521,-0.283007,-0.45523,-1.691009,-1.067195,-1.200964,-1.621117,'\'(-inf-6.266667]\''
'\'(-inf-14.9]\'',-0.889872,-0.769321,-0.935641,-0.365215,-1.708953,-0.676815,-1.676,-1.698792,-0.999352,-1.370074,0,0.288376,0.050152,-0.176037,-0.369147,-1.692005,-1.068451,-1.201496,-1.618316,'\'(-inf-6.266667]\''
'\'(-inf-14.9]\'',-0.896532,-0.768564,-0.916588,-0.18579,-1.711163,-0.758289,-1.671365,-1.690174,-1.021476,-1.166797,0,-0.196846,-0.010318,-0.234384,-0.420797,-1.697975,-1.067757,-1.201101,-1.616521,'\'(-inf-6.266667]\''
'\'(-inf-14.9]\'',-0.841587,-0.745851,-1.014093,-0.006027,-1.702452,-0.738604,-1.683891,-1.699167,-0.904049,-1.173664,0,-0.036854,-0.007294,-0.22466,-0.420797,-1.693001,-1.070276,-1.201223,-1.613594,'\'(-inf-6.266667]\''
'\'(-inf-14.9]\'',-0.875997,-0.753422,-1.107114,-0.37539,-1.685408,-0.683297,-1.657227,-1.684773,-0.992545,-1.294532,0,0.448369,0.092481,-0.140381,-0.365704,-1.642263,-1.070707,-1.199873,-1.606574,'\'(-inf-6.266667]\''
'\'(-inf-14.9]\'',-0.878772,-0.754936,-1.193411,-0.355578,-1.682252,-0.327201,-1.657029,-1.685772,-0.99765,-1.320628,-0.739663,0.07855,0.059222,-0.169554,-0.355374,-1.61938,-1.06821,-1.198796,-1.605504,'\'(-inf-6.266667]\''
'\'(-inf-14.9]\'',-0.919842,-0.782192,-1.205739,-0.381132,-1.674709,-0.1908,-1.648054,-1.686178,-1.06232,-1.604942,-0.750224,0.191332,-0.052646,-0.244109,-0.43457,-1.627337,-1.067857,-1.197377,-1.601569,'\'(-inf-6.266667]\''
'\'(-inf-14.9]\'',-0.854352,-0.773863,-1.109355,-0.20158,-1.676571,-0.441711,-1.67919,-1.703351,-0.880223,-1.28217,-1.101386,-0.842061,-0.246149,-0.367286,-0.517209,-1.635298,-1.067962,-1.196327,-1.596123,'\'(-inf-6.266667]\''
'\'(-inf-14.9]\'',-0.889317,-0.780677,-1.241602,-0.245338,-1.66524,-0.430747,-1.636908,-1.666507,-0.972123,-1.187399,-0.940327,-0.369953,-0.240102,-0.373769,-0.506879,-1.64226,-1.06546,-1.196314,-1.58712,'\'(-inf-6.266667]\''
'\'(-inf-14.9]\'',-0.944263,-0.812476,-1.160909,-0.162307,-1.675908,-0.428307,-1.633686,-1.66504,-1.069127,-1.210748,-0.845276,-0.417164,-0.188703,-0.308939,-0.482776,-1.643255,-1.066922,-1.195536,-1.595494,'\'(-inf-6.266667]\''
'\'(-inf-14.9]\'',-0.912627,-0.807176,-1.03987,-0.141606,-1.679916,-0.536998,-1.630036,-1.655423,-0.984035,-1.183279,-1.093465,-0.480111,-0.445698,-0.428874,-0.551642,-1.654199,-1.067053,-1.19525,-1.595273,'\'(-inf-6.266667]\''
'\'(-inf-14.9]\'',-0.875442,-0.804148,-1.037628,-0.084228,-1.681242,-0.611483,-1.638552,-1.661324,-0.87682,-1.22311,-0.985212,-0.611253,-0.494074,-0.535843,-0.637724,-1.657186,-1.06802,-1.194732,-1.594392,'\'(-inf-6.266667]\''
'\'(-inf-14.9]\'',-0.872112,-0.796577,-0.922192,0.044277,-1.682315,-0.663315,-1.639012,-1.658327,-0.883627,-1.172291,-0.998414,-0.225697,-0.56966,-0.590949,-0.672157,-1.658178,-1.067694,-1.194977,-1.593416,'\'(-inf-6.266667]\''
'\'(-inf-14.9]\'',-0.841587,-0.754179,-1.005127,0.008585,-1.683735,-0.692068,-1.626781,-1.648647,-0.885329,-1.267062,-1.024817,-0.873535,-0.533379,-0.59419,-0.672157,-1.667134,-1.067784,-1.194759,-1.593322,'\'(-inf-6.266667]\''
'\'(-inf-14.9]\'',-0.726701,-0.678468,-0.927796,0.10786,-1.686418,-0.843783,-1.647659,-1.656984,-0.703232,-1.144821,-1.056501,-0.482734,-0.542449,-0.545568,-0.641168,-1.668126,-1.066943,-1.194868,-1.592692,'\'(-inf-6.266667]\''
'\'(-inf-14.9]\'',-0.707831,-0.690582,-0.832533,0.148406,-1.692131,-0.879219,-1.631976,-1.639655,-0.618141,-1.210748,-1.038018,-0.482734,-0.530355,-0.52936,-0.627395,-1.680066,-1.06832,-1.1948,-1.593574,'\'(-inf-6.266667]\''
'\'(-inf-14.9]\'',-0.752786,-0.687554,-0.719339,0.095104,-1.699043,-0.989637,-1.642859,-1.641029,-0.762797,-0.683326,-1.111947,-0.962711,-0.596872,-0.574741,-0.658384,-1.695984,-1.069014,-1.196341,-1.592566,'\'(6.266667-10.533333]\''
'\'(-inf-14.9]\'',-0.649555,-0.622443,-0.709252,0.133391,-1.700905,-0.999709,-1.642925,-1.639405,-0.592613,-0.982748,-1.064422,-0.647972,-0.611989,-0.574741,-0.658384,-1.694988,-1.06894,-1.196736,-1.593164,'\'(6.266667-10.533333]\''
'\'(-inf-14.9]\'',-0.600715,-0.603515,-0.787704,0.381801,-1.704882,-1.045269,-1.649106,-1.640248,-0.485398,-0.772603,-1.085544,-0.535191,-0.575707,-0.577983,-0.679044,-1.695984,-1.069277,-1.197036,-1.594298,'\'(6.266667-10.533333]\''
'\'(-inf-14.9]\'',-0.574629,-0.581559,-0.710373,0.144506,-1.701663,-1.03103,-1.640492,-1.631412,-0.454764,-1.011592,-0.982572,-0.309628,-0.590825,-0.597432,-0.692817,-1.691009,-1.068283,-1.197759,-1.591716,'\'(6.266667-10.533333]\''
'\'(14.9-27.8]\'',-0.499704,-0.499792,-0.765289,0.143529,-1.702673,-1.036472,-1.656142,-1.645026,-0.408815,-1.19564,-0.977291,-0.69256,-0.590825,-0.607156,-0.679044,-1.674096,-1.069965,-1.197759,-1.592535,'\'(6.266667-10.533333]\''
'\'(14.9-27.8]\'',-0.450863,-0.456637,-0.759685,0.029426,-1.697654,-1.017952,-1.653676,-1.639249,-0.356058,-1.169544,-0.911283,-0.529945,-0.593848,-0.639571,-0.703147,-1.661165,-1.068562,-1.197664,-1.590394,'\'(6.266667-10.533333]\''
'\'(14.9-27.8]\'',-0.470288,-0.404397,-0.774255,-0.09509,-1.691626,-0.983769,-1.63579,-1.625948,-0.533049,-1.041809,-0.79775,-0.12603,-0.536402,-0.52936,-0.644611,-1.649225,-1.067857,-1.197787,-1.587372,'\'(6.266667-10.533333]\''
'\'(14.9-27.8]\'',-0.370942,-0.356699,-0.844861,-0.02308,-1.687018,-0.967666,-1.648448,-1.636626,-0.335636,-1.11323,-0.763426,-0.249303,-0.578731,-0.519636,-0.630838,-1.639277,-1.067931,-1.1975,-1.583469,'\'(6.266667-10.533333]\''
'\'(14.9-27.8]\'',-0.471398,-0.425596,-0.810118,-0.159922,-1.681494,-0.879958,-1.640426,-1.636689,-0.488801,-1.234098,-0.562762,-0.309628,-0.536402,-0.480738,-0.589518,-1.63132,-1.066879,-1.196886,-1.580636,'\'(6.266667-10.533333]\''
'\'(14.9-27.8]\'',-0.536889,-0.467236,-0.910985,-0.100813,-1.678654,-0.860571,-1.650651,-1.646587,-0.596017,-1.017086,-0.723821,-0.002757,-0.536402,-0.500187,-0.610178,-1.632311,-1.066711,-1.196341,-1.57796,'\'(6.266667-10.533333]\''
'\'(14.9-27.8]\'',-0.564639,-0.48465,-0.921071,-0.203923,-1.674424,-0.778879,-1.638223,-1.638,-0.641966,-1.083013,-0.657813,-0.039477,-0.539426,-0.532602,-0.630838,-1.615402,-1.064971,-1.196109,-1.576103,'\'(6.266667-10.533333]\''
'\'(14.9-27.8]\'',-0.616255,-0.527048,-0.942365,-0.213635,-1.667481,-0.666026,-1.632897,-1.641622,-0.704934,-1.320628,-0.581244,-0.118162,-0.533379,-0.526119,-0.623951,-1.601471,-1.064277,-1.195277,-1.573018,'\'(-inf-6.266667]\''
'\'(14.9-27.8]\'',-0.63124,-0.548246,-1.047715,-0.276054,-1.663378,-0.644691,-1.638848,-1.650958,-0.703232,-1.188773,-0.557481,-0.170618,-0.500121,-0.496945,-0.582632,-1.593514,-1.06424,-1.195141,-1.570626,'\'(-inf-6.266667]\''
'\'(14.9-27.8]\'',-0.70117,-0.596701,-1.063405,-0.257738,-1.662778,-0.552018,-1.632009,-1.647461,-0.808746,-1.234098,-0.660454,-0.181109,-0.469886,-0.487221,-0.575745,-1.601475,-1.063389,-1.19435,-1.568611,'\'(-inf-6.266667]\''
'\'(14.9-27.8]\'',-0.696175,-0.589887,-1.111597,-0.286463,-1.653404,-0.501406,-1.617871,-1.640592,-0.808746,-1.504677,-0.470351,-0.398804,-0.469886,-0.503428,-0.589518,-1.586548,-1.063378,-1.193559,-1.564708,'\'(-inf-6.266667]\''
'\'(14.9-27.8]\'',-0.741686,-0.6232,-1.188928,-0.309866,-1.650658,-0.51943,-1.619351,-1.640436,-0.873416,-1.206628,-0.62877,0.033962,-0.536402,-0.5715,-0.627395,-1.581574,-1.061696,-1.192672,-1.561969,'\'(-inf-6.266667]\''
'\'(-inf-14.9]\'',-0.763886,-0.635313,-1.126166,-0.324647,-1.640337,-0.516306,-1.623329,-1.644682,-0.91426,-1.33299,-0.362098,0.246411,-0.557567,-0.597432,-0.658384,-1.579587,-1.061144,-1.192468,-1.556366,'\'(-inf-6.266667]\''
'\'(14.9-27.8]\'',-0.757226,-0.632285,-1.097027,-0.234172,-1.639517,-0.44948,-1.612939,-1.636158,-0.900645,-1.45111,-0.607647,0.138875,-0.545473,-0.577983,-0.648054,-1.580582,-1.06045,-1.191445,-1.55539,'\'(-inf-6.266667]\''
'\'(14.9-27.8]\'',-0.787751,-0.673169,-1.130649,-0.205709,-1.639012,-0.489204,-1.613531,-1.637313,-0.902347,-1.375568,-0.575964,-0.068328,-0.545473,-0.584466,-0.634281,-1.58257,-1.061769,-1.190763,-1.552778,'\'(-inf-6.266667]\''
'\'(-inf-14.9]\'',-0.804401,-0.679225,-1.084699,-0.218933,-1.635792,-0.484446,-1.619679,-1.643933,-0.939788,-1.383809,-0.483553,0.052322,-0.466862,-0.532602,-0.599848,-1.573617,-1.060161,-1.190245,-1.551519,'\'(-inf-6.266667]\''
'\'(-inf-14.9]\'',-0.786641,-0.655755,-0.977108,-0.21017,-1.632889,-0.575366,-1.603733,-1.622732,-0.938086,-1.192893,-0.454509,0.228051,-0.494074,-0.561775,-0.610178,-1.572622,-1.059519,-1.18959,-1.548717,'\'(-inf-6.266667]\''
'\'(-inf-14.9]\'',-0.778316,-0.706481,-1.028662,-0.232755,-1.62847,-0.58204,-1.596369,-1.617362,-0.798535,-1.16817,-0.393782,-0.278154,-0.536402,-0.565017,-0.610178,-1.566652,-1.059209,-1.188608,-1.54601,'\'(-inf-6.266667]\''
'\'(-inf-14.9]\'',-0.819387,-0.723895,-1.082458,-0.215468,-1.626482,-0.549639,-1.598933,-1.62473,-0.885329,-1.323375,-0.504675,0.270017,-0.56059,-0.584466,-0.627395,-1.565656,-1.057574,-1.187899,-1.543901,'\'(-inf-6.266667]\''
'\'(-inf-14.9]\'',-0.803291,-0.773863,-1.158668,-0.239642,-1.626008,-0.625341,-1.607712,-1.626167,-0.723655,-1.045929,-0.359458,0.503448,-0.554543,-0.597432,-0.630838,-1.561678,-1.057022,-1.187844,-1.542138,'\'(-inf-6.266667]\''
'\'(-inf-14.9]\'',-0.793856,-0.720866,-1.052198,-0.194964,-1.626892,-0.587471,-1.604424,-1.626697,-0.813852,-1.19152,-0.359458,0.351324,-0.55152,-0.610398,-0.651498,-1.561678,-1.057043,-1.187694,-1.541729,'\'(-inf-6.266667]\''
'\'(-inf-14.9]\'',-0.763886,-0.695125,-0.960297,-0.221785,-1.624146,-0.61901,-1.600314,-1.61758,-0.779815,-1.194267,-0.327774,-0.48798,-0.542449,-0.603915,-0.661828,-1.554716,-1.056596,-1.187449,-1.540186,'\'(-inf-6.266667]\''
'\'(-inf-14.9]\'',-0.755561,-0.654998,-0.926675,-0.26767,-1.620516,-0.667095,-1.601892,-1.613958,-0.844485,-1.018459,-0.422825,0.068059,-0.55152,-0.577983,-0.630838,-1.543768,-1.057401,-1.187012,-1.535653,'\'(-inf-6.266667]\''
'\'(-inf-14.9]\'',-0.783311,-0.653484,-0.945728,-0.302782,-1.617676,-0.59549,-1.591141,-1.608931,-0.93298,-1.234098,-0.301371,0.272639,-0.545473,-0.5715,-0.627395,-1.537802,-1.056554,-1.186712,-1.532978,'\'(-inf-6.266667]\''
'\'(-inf-14.9]\'',-0.792191,-0.659541,-0.990557,-0.275643,-1.60947,-0.6115,-1.581573,-1.600376,-0.946595,-1.212122,-0.222162,0.679177,-0.521285,-0.552051,-0.613621,-1.528846,-1.056092,-1.186576,-1.528256,'\'(-inf-6.266667]\''
'\'(-inf-14.9]\'',-0.744461,-0.648941,-1.064526,-0.289357,-1.608333,-0.68505,-1.582461,-1.596161,-0.824063,-1.001977,-0.058462,0.553282,-0.518261,-0.558534,-0.627395,-1.51691,-1.05677,-1.185962,-1.528886,'\'(-inf-6.266667]\''
'\'(-inf-14.9]\'',-0.794411,-0.728437,-0.953573,-0.302492,-1.606976,-0.605708,-1.581343,-1.602593,-0.798535,-1.209375,-0.071664,0.414272,-0.494074,-0.52936,-0.606735,-1.513923,-1.055976,-1.185321,-1.526651,'\'(-inf-6.266667]\''
'\'(-inf-14.9]\'',-0.792746,-0.692096,-0.919951,-0.334031,-1.602715,-0.587931,-1.572926,-1.592289,-0.875118,-1.245086,-0.135031,0.482465,-0.409416,-0.503428,-0.596405,-1.517906,-1.05473,-1.184735,-1.524038,'\'(-inf-6.266667]\''
'\'(-inf-14.9]\'',-0.768326,-0.712538,-1.075733,-0.288848,-1.599054,-0.550513,-1.572828,-1.597597,-0.754288,-1.267062,-0.164075,0.548036,-0.394299,-0.503428,-0.603291,-1.515915,-1.054867,-1.184067,-1.520827,'\'(-inf-6.266667]\''
'\'(-inf-14.9]\'',-0.793301,-0.683768,-0.991678,-0.293926,-1.593752,-0.580695,-1.564082,-1.586825,-0.89554,-1.242339,0.107878,0.873266,-0.382205,-0.480738,-0.575745,-1.505966,-1.055135,-1.183303,-1.516987,'\'(-inf-6.266667]\''
'\'(-inf-14.9]\'',-0.792191,-0.705724,-1.061164,-0.307332,-1.587281,-0.5418,-1.560136,-1.582142,-0.842783,-1.183279,0.110518,0.915231,-0.361041,-0.477496,-0.565415,-1.499001,-1.053253,-1.182266,-1.511604,'\'(-inf-6.266667]\''
'\'(-inf-14.9]\'',-0.801626,-0.712538,-0.989436,-0.333246,-1.588165,-0.619898,-1.561024,-1.577864,-0.856398,-1.017086,-0.03998,0.503448,-0.330806,-0.464531,-0.561972,-1.494027,-1.054493,-1.181721,-1.510565,'\'(-inf-6.266667]\''
'\'(-inf-14.9]\'',-0.827712,-0.736008,-1.005127,-0.238282,-1.58482,-0.494431,-1.5628,-1.585046,-0.883627,-1.133833,0.134281,0.159858,-0.309642,-0.454806,-0.558529,-1.496018,-1.052101,-1.181666,-1.508393,'\'(-inf-6.266667]\''
'\'(-inf-14.9]\'',-0.799961,-0.725409,-1.069009,-0.345581,-1.580843,-0.509856,-1.559051,-1.5798,-0.822361,-1.091254,-0.201039,0.453614,-0.315689,-0.445082,-0.544755,-1.487065,-1.05268,-1.18093,-1.501688,'\'(-inf-6.266667]\''
'\'(-inf-14.9]\'',-0.823272,-0.73828,-1.001764,-0.41716,-1.572447,-0.496671,-1.545111,-1.56959,-0.864907,-1.224483,0.184447,1.022767,-0.318712,-0.458048,-0.551642,-1.4801,-1.05217,-1.180412,-1.498478,'\'(-inf-6.266667]\''
'\'(-inf-14.9]\'',-0.809951,-0.724652,-1.104872,-0.350435,-1.567902,-0.483969,-1.544716,-1.568653,-0.854696,-1.121471,-0.156154,0.228051,-0.279407,-0.422391,-0.527539,-1.4801,-1.051365,-1.179839,-1.49448,'\'(-inf-6.266667]\''
'\'(-inf-14.9]\'',-0.868227,-0.75115,-1.028662,-0.413195,-1.567113,-0.404647,-1.525219,-1.551137,-0.973824,-1.143447,-0.285529,0.047076,-0.279407,-0.41915,-0.524096,-1.463186,-1.05044,-1.179061,-1.493882,'\'(-inf-6.266667]\''
'\'(-inf-14.9]\'',-0.845472,-0.725409,-1.138494,-0.396109,-1.561842,-0.340538,-1.516178,-1.547359,-0.961911,-1.261568,-0.193118,0.09691,-0.300571,-0.451565,-0.534426,-1.457217,-1.048915,-1.17853,-1.48979,'\'(-inf-6.266667]\''
'\'(-inf-14.9]\'',-0.805511,-0.72238,-1.121683,-0.423585,-1.557739,-0.31155,-1.529757,-1.558693,-0.846187,-1.209375,-0.243284,0.314605,-0.303595,-0.461289,-0.544755,-1.454234,-1.048826,-1.177889,-1.487334,'\'(-inf-6.266667]\''
'\'(-inf-14.9]\'',-0.830487,-0.711024,-1.118321,-0.458346,-1.551648,-0.169968,-1.523806,-1.559474,-0.948297,-1.529399,-0.179917,0.346078,-0.336853,-0.458048,-0.537869,-1.447268,-1.048258,-1.177575,-1.483085,'\'(-inf-6.266667]\''
'\'(-inf-14.9]\'',-0.868227,-0.72238,-1.160909,-0.504994,-1.545114,-0.219494,-1.521701,-1.556008,-1.038494,-1.240965,-0.174636,0.364438,-0.330806,-0.451565,-0.537869,-1.440307,-1.046639,-1.177057,-1.478772,'\'(-inf-6.266667]\''
'\'(-inf-14.9]\'',-0.877662,-0.758721,-1.135132,-0.468297,-1.536151,-0.221993,-1.51792,-1.550637,-0.985737,-1.231351,-0.282889,0.065436,-0.300571,-0.44184,-0.534426,-1.436324,-1.04554,-1.175475,-1.474019,'\'(-inf-6.266667]\''
'\'(-inf-14.9]\'',-0.885432,-0.779163,-1.182203,-0.44783,-1.539623,-0.227572,-1.517789,-1.550075,-0.963613,-1.161303,-0.3753,0.246411,-0.294524,-0.445082,-0.537869,-1.451247,-1.050093,-1.175488,-1.470556,'\'(-inf-6.266667]\''
'\'(-inf-14.9]\'',-0.874887,-0.775378,-1.191169,-0.389381,-1.526209,-0.062415,-1.512758,-1.550762,-0.939788,-1.378315,-0.311932,0.146744,-0.279407,-0.454806,-0.551642,-1.418419,-1.049031,-1.174465,-1.466716,'\'(-inf-6.266667]\''
'\'(-inf-14.9]\'',-0.902082,-0.782192,-1.179962,-0.469756,-1.519802,-0.118738,-1.510161,-1.545173,-1.007861,-1.273929,-0.54956,0.141498,-0.246149,-0.438599,-0.541312,-1.405484,-1.043716,-1.173456,-1.463001,'\'(-inf-6.266667]\''
'\'(-inf-14.9]\'',-0.946483,-0.812476,-1.140736,-0.541709,-1.51472,-0.056187,-1.504144,-1.541926,-1.075934,-1.33711,-0.285529,-0.181109,-0.270336,-0.435357,-0.537869,-1.393548,-1.042838,-1.172147,-1.459885,'\'(-inf-6.266667]\''
'\'(-inf-14.9]\'',-0.876552,-0.795062,-1.142977,-0.524357,-1.50784,-0.058411,-1.49987,-1.532934,-0.900645,-1.176411,-0.494114,0.007734,-0.243125,-0.41915,-0.530982,-1.386583,-1.042076,-1.171424,-1.454376,'\'(-inf-6.266667]\''
'\'(-inf-14.9]\'',-0.944818,-0.835189,-1.211342,-0.538614,-1.501432,0.082005,-1.489612,-1.530061,-1.019774,-1.232724,-0.425466,-0.018494,-0.234055,-0.41915,-0.530982,-1.37166,-1.04328,-1.169665,-1.450379,'\'(-inf-6.266667]\''
'\'(-inf-14.9]\'',-0.944818,-0.828375,-1.223671,-0.544318,-1.493353,0.062332,-1.483234,-1.52135,-1.03509,-1.170917,-0.554841,0.020848,-0.240102,-0.41915,-0.534426,-1.366686,-1.04227,-1.168833,-1.443107,'\'(-inf-6.266667]\''
'\'(-inf-14.9]\'',-0.978118,-0.841246,-1.195652,-0.57135,-1.48603,0.239387,-1.470049,-1.513919,-1.108269,-1.276676,-0.436027,0.125761,-0.243125,-0.41915,-0.530982,-1.357733,-1.040393,-1.167892,-1.439802,'\'(-inf-6.266667]\''
'\'(-inf-14.9]\'',-0.950368,-0.827618,-1.233757,-0.567637,-1.479749,0.288643,-1.470345,-1.515605,-1.053811,-1.295905,-0.346256,0.151989,-0.255219,-0.41915,-0.530982,-1.348777,-1.041129,-1.166719,-1.435993,'\'(-inf-6.266667]\''
'\'(-inf-14.9]\'',-1.007533,-0.861687,-1.289794,-0.616955,-1.47107,0.356637,-1.456043,-1.504708,-1.152517,-1.298652,-0.356818,0.259525,-0.258243,-0.41915,-0.534426,-1.337833,-1.039137,-1.165301,-1.430138,'\'(-inf-6.266667]\''
'\'(-inf-14.9]\'',-0.979783,-0.859416,-1.311088,-0.490788,-1.462769,0.465509,-1.459265,-1.509235,-1.072531,-1.354966,-0.325134,0.005111,-0.231031,-0.402942,-0.517209,-1.332859,-1.038742,-1.163937,-1.425479,'\'(-inf-6.266667]\''
'\'(-inf-14.9]\'',-0.980338,-0.83746,-1.400747,-0.579051,-1.4545,0.582371,-1.461764,-1.512795,-1.123586,-1.335737,-0.383221,0.136252,-0.191726,-0.386735,-0.503436,-1.329876,-1.038411,-1.163405,-1.419813,'\'(-inf-6.266667]\''
'\'(-inf-14.9]\'',-1.013638,-0.852602,-1.333503,-0.623337,-1.447272,0.723757,-1.448317,-1.502304,-1.191659,-1.464845,-0.245924,0.057568,-0.161491,-0.357561,-0.482776,-1.317936,-1.035189,-1.16275,-1.415343,'\'(-inf-6.266667]\''
'\'(-inf-14.9]\'',-1.028623,-0.87153,-1.361521,-0.617329,-1.438529,0.965798,-1.447363,-1.503584,-1.195063,-1.467592,-0.174636,0.07855,-0.140327,-0.318663,-0.448343,-1.312962,-1.033643,-1.161714,-1.41059,'\'(-inf-6.266667]\''
'\'(-inf-14.9]\'',-1.020853,-0.885158,-1.404109,-0.670536,-1.42824,1.067201,-1.43625,-1.494342,-1.140604,-1.598074,-0.150873,0.592624,-0.034505,-0.234384,-0.389807,-1.29804,-1.03318,-1.160623,-1.40442,'\'(-inf-6.266667]\''
'\'(-inf-14.9]\'',-1.040834,-0.887429,-1.493768,-0.627929,-1.421706,1.138377,-1.431779,-1.491438,-1.196765,-1.47858,-0.12447,-0.157504,0.01387,-0.189003,-0.39325,-1.2861,-1.032318,-1.159464,-1.399887,'\'(-inf-6.266667]\''
'\'(-inf-14.9]\'',-1.056929,-0.902571,-1.515062,-0.662929,-1.413279,1.390491,-1.433883,-1.498682,-1.212081,-1.503303,-0.562762,-0.136521,0.032011,-0.150106,-0.317498,-1.278143,-1.031929,-1.157445,-1.394662,'\'(-inf-6.266667]\''
'\'(-inf-14.9]\'',-1.063034,-0.904085,-1.452301,-0.797124,-1.400781,1.501389,-1.432107,-1.494904,-1.227398,-1.47858,-0.364739,-0.094556,0.041081,-0.169554,-0.303725,-1.261229,-1.029632,-1.155836,-1.388492,'\'(-inf-6.266667]\''
'\'(-inf-14.9]\'',-1.067474,-0.916956,-1.63274,-0.821981,-1.393048,1.437775,-1.421521,-1.486692,-1.212081,-1.42364,-0.599726,-0.204715,0.019917,-0.198728,-0.345044,-1.259238,-1.031451,-1.154445,-1.382448,'\'(-inf-6.266667]\''
'\'(-inf-14.9]\'',-1.090229,-0.891215,-1.444456,-0.761259,-1.384368,1.329721,-1.421948,-1.483289,-1.339719,-1.330243,-0.776627,-0.4329,0.028988,-0.179279,-0.334714,-1.247303,-1.033716,-1.15229,-1.37716,'\'(-inf-6.266667]\''
'\'(-inf-14.9]\'',-1.122974,-0.932855,-1.491527,-0.753273,-1.371775,1.453327,-1.412808,-1.477044,-1.346526,-1.308267,-1.098746,-0.619121,0.041081,-0.153347,-0.324384,-1.241333,-1.030725,-1.149972,-1.369983,'\'(-inf-6.266667]\''
'\'(-inf-14.9]\'',-1.149615,-0.948754,-1.457905,-0.646768,-1.365778,1.452693,-1.410013,-1.474265,-1.392476,-1.317881,-1.162113,-0.902386,0.101551,-0.088517,-0.252075,-1.234368,-1.030168,-1.148144,-1.364821,'\'(-inf-6.266667]\''
'\'(-inf-14.9]\'',-1.129079,-0.951783,-1.437731,-0.725455,-1.359277,1.385663,-1.40061,-1.464586,-1.322701,-1.342604,-1.30733,-0.815833,0.21342,0.018452,-0.183209,-1.233376,-1.028659,-1.146194,-1.361484,'\'(-inf-6.266667]\''
'\'(-inf-14.9]\'',-1.115759,-0.954054,-1.475837,-0.749279,-1.354984,1.438337,-1.396927,-1.464274,-1.276751,-1.434628,-1.579283,-1.007299,0.298077,0.018452,-0.196982,-1.221436,-1.028386,-1.144625,-1.356447,'\'(-inf-6.266667]\''
'\'(-inf-14.9]\'',-1.112429,-0.939669,-1.490406,-0.733124,-1.348325,1.44458,-1.392226,-1.459809,-1.298875,-1.453857,-1.671694,-1.539732,0.225513,-0.056102,-0.255518,-1.212483,-1.028964,-1.142512,-1.351159,'\'(-inf-6.266667]\''
'\'(-inf-14.9]\'',-1.129079,-0.955568,-1.494889,-0.692887,-1.343117,1.482744,-1.377792,-1.446976,-1.314191,-1.511544,-1.679615,-1.230239,0.21342,-0.026929,-0.203869,-1.221436,-1.028917,-1.140589,-1.345871,'\'(-inf-6.266667]\''
'\'(-inf-14.9]\'',-1.115759,-0.947997,-1.529632,-0.634639,-1.337436,1.279065,-1.381442,-1.446008,-1.290366,-1.397544,-1.661132,-1.154177,0.110621,-0.143623,-0.314055,-1.218453,-1.029873,-1.138966,-1.340834,'\'(-inf-6.266667]\''
'\'(-inf-14.9]\'',-1.115204,-0.953297,-1.407472,-0.668904,-1.330871,1.244311,-1.383349,-1.446071,-1.276751,-1.361833,-0.995773,-0.95222,-0.025435,-0.240867,-0.40358,-1.212343,-1.036329,-1.13692,-1.335829,'\'(-inf-6.266667]\''
'\'(-inf-14.9]\'',-1.131854,-0.954811,-1.398506,-0.575385,-1.330176,1.270783,-1.385486,-1.449755,-1.324402,-1.378315,-1.228121,-0.805342,-0.037529,-0.227901,-0.386364,-1.227102,-1.037612,-1.136129,-1.332933,'\'(-inf-6.266667]\''
'\'(-inf-14.9]\'',-1.14462,-0.97071,-1.39066,-0.426924,-1.326989,1.211761,-1.390976,-1.455781,-1.327806,-1.39205,-1.101386,-0.981071,-0.146374,-0.292731,-0.417353,-1.234353,-1.036345,-1.134997,-1.327613,'\'(-inf-6.266667]\''
'\'(-inf-14.9]\'',-1.14906,-0.975253,-1.360401,-0.416403,-1.329009,1.236463,-1.376411,-1.441762,-1.33121,-1.445616,-0.890161,-0.889272,-0.218937,-0.302456,-0.400137,-1.222287,-1.036024,-1.134247,-1.327204,'\'(-inf-6.266667]\''
'\'(-inf-14.9]\'',-1.155165,-0.991152,-1.350314,-0.543823,-1.324148,1.174034,-1.377661,-1.441887,-1.314191,-1.398917,-0.781908,-0.33061,-0.206843,-0.22466,-0.310611,-1.233553,-1.036603,-1.133756,-1.320373,'\'(-inf-6.266667]\''
'\'(-inf-14.9]\'',-1.15239,-0.993424,-1.37497,-0.561357,-1.320045,1.102179,-1.363391,-1.426369,-1.300577,-1.229977,-0.536359,-0.477488,-0.107069,-0.140381,-0.252075,-1.233716,-1.032807,-1.133415,-1.315714,'\'(-inf-6.266667]\''
'\'(-inf-14.9]\'',-1.15794,-0.992666,-1.397385,-0.580996,-1.315689,1.093012,-1.355435,-1.420311,-1.319297,-1.315134,-0.515236,-0.173241,0.053175,-0.069068,-0.203869,-1.236629,-1.033711,-1.132678,-1.311717,'\'(-inf-6.266667]\''
'\'(-inf-14.9]\'',-1.141844,-0.955568,-1.324537,-0.65137,-1.307641,1.180982,-1.347314,-1.412568,-1.353334,-1.379688,-0.37794,-0.060459,0.089457,-0.043136,-0.162549,-1.212161,-1.03368,-1.131137,-1.30731,'\'(-inf-6.266667]\''
'\'(-inf-14.9]\'',-1.137959,-0.984338,-1.361521,-0.634302,-1.306978,1.131936,-1.344453,-1.409446,-1.276751,-1.280797,-0.245924,-0.02374,0.122715,-0.013963,-0.155663,-1.214275,-1.03,-1.130346,-1.303123,'\'(-inf-6.266667]\''
'\'(-inf-14.9]\'',-1.124639,-0.972225,-1.286432,-0.632666,-1.305053,1.016527,-1.337976,-1.397518,-1.263136,-1.194267,-0.243284,0.159858,0.16202,0.041143,-0.093684,-1.20369,-1.032029,-1.130401,-1.301329,'\'(-inf-6.266667]\''
'\'(-inf-14.9]\'',-1.114649,-0.969196,-1.350314,-0.681763,-1.289966,1.064501,-1.335543,-1.397612,-1.239311,-1.262941,-0.198399,0.283131,0.234584,0.109214,-0.000714,-1.184955,-1.028943,-1.12871,-1.293113,'\'(-inf-6.266667]\''
'\'(-inf-14.9]\'',-1.117424,-0.959354,-1.333503,-0.658617,-1.283748,1.136974,-1.324101,-1.388245,-1.269944,-1.350845,-0.150873,-0.320119,0.264819,0.09949,-0.017931,-1.170643,-1.025084,-1.127332,-1.288202,'\'(-inf-6.266667]\''
'\'(-inf-14.9]\'',-1.107434,-0.963139,-1.351435,-0.637342,-1.286778,1.356258,-1.349517,-1.416752,-1.230802,-1.567857,-0.509956,-0.131276,0.180161,0.031418,-0.076467,-1.172091,-1.027576,-1.126064,-1.287447,'\'(-inf-6.266667]\''
'\'(-inf-14.9]\'',-1.126859,-0.971468,-1.417558,-0.660721,-1.273806,1.183373,-1.332124,-1.396394,-1.271646,-1.221736,-0.079585,0.23592,0.174114,0.047626,-0.066137,-1.167283,-1.025973,-1.124959,-1.280805,'\'(-inf-6.266667]\''
'\'(-inf-14.9]\'',-1.138514,-0.971468,-1.485923,-0.733433,-1.271281,1.385732,-1.327192,-1.395582,-1.307384,-1.302773,-0.005656,0.094287,0.225513,0.102731,-0.004158,-1.163079,-1.02266,-1.124114,-1.27835,'\'(-inf-6.266667]\''
'\'(-inf-14.9]\'',-1.168485,-0.994181,-1.40523,-0.715664,-1.263044,1.649543,-1.321208,-1.395145,-1.348228,-1.598074,-0.227442,0.325096,0.264819,0.080041,-0.038591,-1.161124,-1.022981,-1.122423,-1.272904,'\'(-inf-6.266667]\''
'\'(-inf-14.9]\'',-1.167375,-1.004023,-1.529632,-0.715664,-1.260014,1.620907,-1.303256,-1.377129,-1.322701,-1.418146,-0.198399,-0.057837,0.394828,0.193493,0.040605,-1.14595,-1.022082,-1.120609,-1.271393,'\'(-inf-6.266667]\''
'\'(-inf-14.9]\'',-1.161825,-0.984338,-1.45006,-0.740914,-1.252028,1.379647,-1.300791,-1.368605,-1.34993,-1.159929,-0.190478,-0.065705,0.346452,0.131905,-0.011044,-1.140928,-1.019769,-1.119518,-1.263712,'\'(-inf-6.266667]\''
'\'(-inf-14.9]\'',-1.15017,-0.98661,-1.433248,-0.728523,-1.245053,1.53239,-1.303914,-1.373289,-1.309086,-1.308267,-0.074304,0.214937,0.246678,0.050867,-0.086797,-1.14303,-1.017966,-1.118754,-1.258802,'\'(-inf-6.266667]\''
'\'(-inf-14.9]\'',-1.168485,-0.991152,-1.507217,-0.713794,-1.238615,1.739784,-1.305361,-1.378253,-1.355036,-1.311014,-0.03998,0.170349,0.180161,0.018452,-0.114343,-1.139207,-1.016057,-1.117022,-1.253041,'\'(-inf-6.266667]\''
'\'(-inf-14.9]\'',-1.178475,-1.007051,-1.489285,-0.753072,-1.233754,1.927243,-1.301119,-1.376786,-1.34993,-1.463472,0.242534,0.330341,0.186208,0.011969,-0.10057,-1.134,-1.019191,-1.116067,-1.249453,'\'(-inf-6.266667]\''
'\'(-inf-14.9]\'',-1.17237,-1.005537,-1.469112,-0.776451,-1.226274,2.116799,-1.29941,-1.375069,-1.334613,-1.500556,0.129,0.364438,0.22249,0.03466,-0.059251,-1.131261,-1.015148,-1.114363,-1.242905,'\'(-inf-6.266667]\''
'\'(-inf-14.9]\'',-1.188465,-1.007809,-1.503855,-0.788609,-1.217973,2.079262,-1.290533,-1.365827,-1.378861,-1.382435,0.168605,0.52443,0.276912,0.070316,-0.017931,-1.113378,-1.011483,-1.113503,-1.237554,'\'(-inf-6.266667]\''
'\'(-inf-14.9]\'',-1.191795,-0.985853,-1.467991,-0.713326,-1.209641,2.062072,-1.281195,-1.357896,-1.438425,-1.473086,0.04451,0.309359,0.409945,0.219425,0.095698,-1.108955,-1.013665,-1.112617,-1.232549,'\'(-inf-6.266667]\''
'\'(-inf-14.9]\'',-1.198455,-1.008566,-1.484802,-0.750734,-1.203612,2.178774,-1.280307,-1.356022,-1.407792,-1.436002,0.229332,0.889003,0.455297,0.261564,0.099141,-1.100458,-1.012051,-1.111403,-1.227386,'\'(-inf-6.266667]\''
'\'(-inf-14.9]\'',-1.18791,-1.019922,-1.397385,-0.729692,-1.195406,2.213986,-1.263145,-1.340536,-1.34993,-1.589833,0.324383,0.721142,0.476462,0.290738,0.150791,-1.091412,-1.010952,-1.109548,-1.222696,'\'(-inf-6.266667]\''
'\'(-inf-14.9]\'',-1.190685,-1.016894,-1.501614,-0.762423,-1.188904,2.215747,-1.26183,-1.338662,-1.365247,-1.368701,0.173885,0.343456,0.455297,0.313428,0.188667,-1.080261,-1.012177,-1.107748,-1.218037,'\'(-inf-6.266667]\''
'\'(-inf-14.9]\'',-1.17237,-1.006294,-1.508338,-0.785803,-1.183633,2.186974,-1.256701,-1.332355,-1.332912,-1.372821,0.181806,0.246411,0.43111,0.277772,0.143904,-1.085535,-1.01131,-1.106221,-1.212843,'\'(-inf-6.266667]\''
'\'(-inf-14.9]\'',-1.171815,-1.011594,-1.628257,-0.798896,-1.175553,2.261453,-1.26035,-1.337226,-1.319297,-1.30552,-0.116549,0.401158,0.479485,0.355568,0.195553,-1.090931,-1.009854,-1.104284,-1.207429,'\'(-inf-6.266667]\''
'\'(-inf-14.9]\'',-1.18236,-1.013108,-1.469112,-0.748396,-1.165832,1.964959,-1.244963,-1.319397,-1.348228,-1.284917,-0.061102,0.256902,0.666941,0.423639,0.281636,-1.077034,-1.010821,-1.103043,-1.200315,'\'(-inf-6.266667]\''
'\'(-inf-14.9]\'',-1.177365,-0.985853,-1.45006,-0.670073,-1.162897,1.872278,-1.242365,-1.315307,-1.394178,-1.2547,-0.248565,-0.16275,0.836255,0.507918,0.333285,-1.069447,-1.010732,-1.101338,-1.197671,'\'(-inf-6.266667]\''
'\'(-inf-14.9]\'',-1.179585,-1.007051,-1.395143,-0.71847,-1.154091,1.815798,-1.232798,-1.306596,-1.353334,-1.322002,-0.145593,-0.188978,0.818114,0.514401,0.322955,-1.066127,-1.008944,-1.099797,-1.192697,'\'(-inf-6.266667]\''
'\'(-inf-14.9]\'',-1.169595,-0.994938,-1.285311,-0.735537,-1.157058,1.79977,-1.232798,-1.300851,-1.34993,-1.245086,-0.288169,0.201823,0.902772,0.689442,0.48479,-1.066453,-1.00682,-1.098038,-1.191784,'\'(-inf-6.266667]\''
'\'(-inf-14.9]\'',-1.17903,-1.004023,-1.408592,-0.714495,-1.150525,1.730547,-1.226386,-1.294481,-1.358439,-1.078893,-0.412264,-0.128653,0.848349,0.669993,0.464131,-1.066031,-1.005106,-1.096442,-1.184891,'\'(-inf-6.266667]\''
'\'(-inf-14.9]\'',-1.16904,-0.996452,-1.369366,-0.687608,-1.151629,1.88615,-1.22323,-1.29751,-1.344824,-1.400291,-0.478272,-0.527322,0.923936,0.676476,0.477904,-1.079676,-1.005238,-1.095542,-1.181711,'\'(-inf-6.266667]\''
'\'(-inf-14.9]\'',-1.157385,-1.007051,-1.37497,-0.618638,-1.146737,1.717988,-1.216687,-1.290422,-1.28526,-1.393423,-0.573323,-0.270285,1.008593,0.81586,0.653512,-1.083525,-1.003787,-1.093974,-1.178217,'\'(-inf-6.266667]\''
'\'(-inf-14.9]\'',-1.147395,-0.998723,-1.318933,-0.491218,-1.148789,1.219035,-1.215372,-1.279275,-1.273347,-1.098122,-0.818872,-0.905009,0.987429,0.883931,0.701718,-1.11001,-1.003298,-1.093769,-1.17529,'\'(-inf-6.266667]\''
'\'(-inf-14.9]\'',-1.125749,-0.985095,-1.190048,-0.437445,-1.144717,0.959963,-1.218068,-1.273968,-1.237609,-0.892097,-0.671015,-0.327987,0.833232,0.770479,0.512337,-1.110935,-1.002551,-1.092433,-1.17189,'\'(-inf-6.266667]\''
'\'(-inf-14.9]\'',-1.090229,-0.969953,-1.094786,-0.391854,-1.140109,0.668625,-1.212643,-1.263133,-1.162728,-0.85364,-0.634051,-0.291268,0.645776,0.572748,0.453801,-1.112756,-1.004055,-1.091464,-1.167011,'\'(-inf-6.266667]\''
'\'(-inf-14.9]\'',-1.052489,-0.954054,-1.125046,-0.125325,-1.14336,0.488609,-1.21044,-1.255983,-1.082742,-0.632507,-0.391142,-0.435523,0.672988,0.666751,0.563986,-1.116357,-1.002168,-1.08961,-1.164398,'\'(-inf-6.266667]\''
'\'(-inf-14.9]\'',-1.058594,-0.932098,-0.973746,-0.194763,-1.15043,0.26964,-1.222474,-1.263601,-1.150815,-0.673712,-0.116549,-0.36733,0.881607,0.819101,0.743038,-1.117986,-0.999865,-1.089678,-1.16465,'\'(-inf-6.266667]\''
'\'(-inf-14.9]\'',-1.021963,-0.937398,-0.91883,-0.259758,-1.153428,0.147306,-1.227439,-1.26357,-1.026581,-0.686073,-0.132391,-0.118162,0.821138,0.780203,0.718935,-1.122501,-0.998824,-1.088191,-1.16465,'\'(-inf-6.266667]\''
'\'(-inf-14.9]\'',-1.019188,-0.929827,-0.875121,-0.306518,-1.152671,0.026885,-1.217148,-1.25055,-1.03509,-0.642121,-0.12711,0.228051,0.685082,0.695925,0.588089,-1.119085,-0.997446,-1.086446,-1.162446,'\'(-inf-6.266667]\''
'\'(-inf-14.9]\'',-0.995323,-0.916956,-0.853827,-0.311662,-1.156332,-0.029912,-1.220501,-1.251206,-0.990843,-0.573446,0.057712,-0.081442,0.6488,0.689442,0.612192,-1.121572,-0.997499,-1.085,-1.163265,'\'(-inf-6.266667]\''
'\'(-inf-14.9]\'',-0.949258,-0.894243,-0.741753,-0.156887,-1.156111,-0.132159,-1.224644,-1.248895,-0.900645,-0.500651,0.142202,0.272639,0.573213,0.59868,0.563986,-1.131169,-0.996984,-1.084154,-1.159362,'\'(-inf-6.266667]\''
'\'(-inf-14.9]\'',-0.958693,-0.910899,-0.717097,-0.086281,-1.169462,-0.305091,-1.218496,-1.238841,-0.892136,-0.293253,0.506565,0.393289,0.482509,0.543574,0.543326,-1.158826,-0.995612,-1.0838,-1.156591,'\'(-inf-6.266667]\''
'\'(-inf-14.9]\'',-0.903192,-0.855631,-0.444758,-0.125325,-1.172997,-0.409557,-1.219646,-1.230349,-0.846187,-0.359181,0.342865,0.569019,0.204349,0.332877,0.374605,-1.167031,-0.999323,-1.082722,-1.155962,'\'(-inf-6.266667]\''
'\'(-inf-14.9]\'',-0.774986,-0.817018,-0.587091,-0.215337,-1.160909,-0.46005,-1.221488,-1.226539,-0.539856,-0.316603,1.042549,1.214233,0.050152,0.164319,0.219657,-1.136106,-0.994518,-1.082395,-1.154231,'\'(-inf-6.266667]\''
'\'(-inf-14.9]\'',-0.768881,-0.781434,-0.542262,-0.249004,-1.158605,-0.489857,-1.21261,-1.220919,-0.601122,-0.408627,0.71515,1.04375,-0.079858,0.144871,0.168007,-1.125506,-0.990475,-1.081263,-1.149446,'\'(-inf-6.266667]\''
'\'(-inf-14.9]\'',-0.793856,-0.767807,-0.534417,-0.318208,-1.160435,-0.427128,-1.218002,-1.228631,-0.708338,-0.57894,0.569932,0.815564,-0.285454,0.037901,0.123244,-1.128152,-0.988709,-1.079995,-1.148753,'\'(-inf-6.266667]\''
'\'(-inf-14.9]\'',-0.777206,-0.764021,-0.529934,-0.272617,-1.158762,-0.452773,-1.221685,-1.229506,-0.665792,-0.625639,1.021426,1.258821,-0.345923,-0.143623,-0.017931,-1.129655,-0.988467,-1.078154,-1.146361,'\'(-inf-6.266667]\''
'\'(-inf-14.9]\'',-0.748901,-0.763264,-0.59942,-0.301842,-1.153207,-0.446277,-1.208566,-1.217922,-0.5807,-0.540483,0.984462,1.458156,-0.161491,0.067075,0.026832,-1.121883,-0.985218,-1.076667,-1.142741,'\'(-inf-6.266667]\''
'\'(-inf-14.9]\'',-0.735581,-0.72238,-0.609506,-0.279865,-1.146548,-0.437337,-1.203569,-1.21202,-0.631755,-0.508892,1.583813,1.623394,0.062246,0.271289,0.219657,-1.114817,-0.986264,-1.07518,-1.139027,'\'(-inf-6.266667]\''
'\'(-inf-14.9]\'',-0.738911,-0.697396,-0.564677,-0.259758,-1.146327,-0.362701,-1.216128,-1.225415,-0.698127,-0.576193,1.401631,1.563069,0.243654,0.352326,0.264419,-1.108951,-0.982942,-1.074485,-1.136382,'\'(-inf-6.266667]\''
'\'(-inf-14.9]\'',-0.69229,-0.677711,-0.628559,-0.275189,-1.144402,-0.411191,-1.198111,-1.20562,-0.599421,-0.534989,1.839923,1.71257,0.364593,0.456054,0.336729,-1.11303,-0.98239,-1.073489,-1.134336,'\'(-inf-6.266667]\''
'\'(-inf-14.9]\'',-0.68674,-0.690582,-0.607265,-0.125325,-1.142571,-0.426007,-1.190417,-1.195222,-0.553471,-0.360555,1.668303,1.909282,0.29203,0.358809,0.285079,-1.121157,-0.98138,-1.072057,-1.132699,'\'(-inf-6.266667]\''
'\'(-inf-14.9]\'',-0.69895,-0.68074,-0.607265,-0.148705,-1.134965,-0.415011,-1.185486,-1.193411,-0.613035,-0.41,1.64718,1.602411,0.174114,0.225908,0.133574,-1.098526,-0.978242,-1.070816,-1.127631,'\'(-inf-6.266667]\''
'\'(-inf-14.9]\'',-0.682855,-0.659541,-0.631921,-0.254615,-1.134081,-0.368382,-1.177956,-1.189009,-0.611333,-0.518507,1.72639,1.830597,0.022941,0.157836,0.061265,-1.087933,-0.976007,-1.070148,-1.125302,'\'(-inf-6.266667]\''
'\'(-inf-14.9]\'',-0.67786,-0.667112,-0.5389,-0.30418,-1.127611,-0.395428,-1.165495,-1.170712,-0.578998,-0.40588,1.866326,1.97223,-0.049623,0.109214,0.019945,-1.081882,-0.973836,-1.070148,-1.121367,'\'(-inf-6.266667]\''
'\'(-inf-14.9]\'',-0.67453,-0.665598,-0.663302,-0.369643,-1.119341,-0.373589,-1.159775,-1.165498,-0.572191,-0.383904,2.008903,2.268609,-0.070787,0.080041,0.061265,-1.06535,-0.973957,-1.068511,-1.114914,'\'(-inf-6.266667]\''
'\'(-inf-14.9]\'',-0.68896,-0.658026,-0.695803,-0.37806,-1.108863,-0.257288,-1.14373,-1.154476,-0.633457,-0.37841,2.286136,2.790551,-0.167538,0.047626,0.068151,-1.03066,-0.975397,-1.068648,-1.108367,'\'(-inf-6.266667]\''
'\'(-inf-14.9]\'',-0.669535,-0.614114,-0.717097,-0.414065,-1.102329,-0.190043,-1.138831,-1.152665,-0.672599,-0.670965,2.103955,2.517777,-0.170562,0.080041,0.112914,-1.01563,-0.973831,-1.067802,-1.103425,'\'(-inf-6.266667]\''
'\'(-inf-14.9]\'',-0.702835,-0.628499,-0.775375,-0.417572,-1.092987,-0.190713,-1.123542,-1.134711,-0.742375,-0.407253,1.934975,2.370899,-0.049623,0.138388,0.109471,-1.00519,-0.968936,-1.066657,-1.097916,'\'(-inf-6.266667]\''
'\'(-inf-14.9]\'',-0.718931,-0.597458,-0.683475,-0.416403,-1.086106,-0.14563,-1.120846,-1.134618,-0.861503,-0.508892,2.024745,2.147959,0.038058,0.235632,0.150791,-0.990223,-0.968458,-1.064788,-1.093037,'\'(-inf-6.266667]\''
'\'(-inf-14.9]\'',-0.738356,-0.667869,-0.64537,-0.394192,-1.076417,-0.101566,-1.113219,-1.128529,-0.762797,-0.559712,1.834643,2.07452,-0.058693,0.131905,0.130131,-0.990079,-0.965887,-1.062524,-1.087245,'\'(-inf-6.266667]\''
'\'(-inf-14.9]\'',-0.753341,-0.690582,-0.695803,-0.368474,-1.067295,-0.080641,-1.106774,-1.122378,-0.757691,-0.440217,2.140919,2.161073,0.028988,0.151353,0.123244,-0.986063,-0.964599,-1.061679,-1.080036,'\'(-inf-6.266667]\''
'\'(-inf-14.9]\'',-0.746126,-0.714052,-0.666664,-0.254615,-1.068842,-0.03838,-1.101941,-1.118101,-0.68281,-0.482796,2.172603,2.155827,0.038058,0.170802,0.123244,-0.987503,-0.963537,-1.06082,-1.077801,'\'(-inf-6.266667]\''
'\'(-inf-14.9]\'',-0.745016,-0.700424,-0.637525,-0.460824,-1.055207,0.0219,-1.0905,-1.106423,-0.71004,-0.431976,2.352144,2.496795,0.044105,0.18701,0.157677,-0.966551,-0.961634,-1.05801,-1.071694,'\'(-inf-6.266667]\''
'\'(-inf-14.9]\'',-0.758891,-0.692096,-0.806756,-0.448199,-1.051325,0.082471,-1.09165,-1.110326,-0.771306,-0.338579,2.695385,2.756454,0.207373,0.261564,0.274749,-0.954567,-0.957828,-1.055801,-1.069585,'\'(-inf-6.266667]\''
'\'(-inf-14.9]\'',-0.763331,-0.711781,-0.714856,-0.472514,-1.038384,0.163805,-1.08925,-1.107235,-0.740673,-0.341326,2.592413,2.766946,0.207373,0.238874,0.250646,-0.934526,-0.954931,-1.054069,-1.061621,'\'(-inf-6.266667]\''
'\'(-inf-14.9]\'',-0.809396,-0.75115,-0.811239,-0.473683,-1.028947,0.328245,-1.076954,-1.104081,-0.79343,-0.561085,2.275575,2.599085,0.131786,0.219425,0.18178,-0.915829,-0.953527,-1.051996,-1.05457,'\'(-inf-6.266667]\''
'\'(-inf-14.9]\'',-0.828267,-0.762507,-0.728304,-0.512728,-1.019637,0.550951,-1.063473,-1.093122,-0.825765,-0.819302,2.764033,2.454829,0.207373,0.232391,0.209327,-0.897834,-0.948785,-1.050264,-1.047928,'\'(-inf-6.266667]\''
'\'(-inf-14.9]\'',-0.861012,-0.796577,-0.85831,-0.577723,-1.008621,0.741954,-1.071331,-1.10736,-0.84959,-0.77535,2.373267,2.756454,0.319241,0.290738,0.24376,-0.886117,-0.945105,-1.046418,-1.042703,'\'(-inf-6.266667]\''
'\'(-inf-14.9]\'',-0.890427,-0.825346,-0.94909,-0.608117,-0.996091,0.662836,-1.04664,-1.079977,-0.875118,-0.467687,2.254452,2.252872,0.409945,0.375017,0.305739,-0.862727,-0.94193,-1.043145,-1.036659,'\'(-inf-6.266667]\''
'\'(-inf-14.9]\'',-0.893202,-0.813233,-0.862793,-0.583802,-0.987569,0.721381,-1.028885,-1.064927,-0.910856,-0.636627,1.821441,2.452207,0.609495,0.439847,0.329842,-0.86202,-0.940247,-1.039981,-1.031371,'\'(-inf-6.266667]\''
'\'(-inf-14.9]\'',-0.937603,-0.849574,-0.712614,-0.528626,-0.982172,0.637893,-1.025367,-1.059557,-0.965315,-0.466314,1.414833,1.715193,0.609495,0.397707,0.316069,-0.864292,-0.941882,-1.036844,-1.027688,'\'(-inf-6.266667]\''
'\'(-inf-14.9]\'',-0.933718,-0.84276,-0.885208,-0.522781,-0.976081,0.74415,-1.022441,-1.060837,-0.968719,-0.517133,1.47556,2.192547,0.621589,0.439847,0.378048,-0.853456,-0.941882,-1.032943,-1.02369,'\'(-inf-6.266667]\''
'\'(-inf-14.9]\'',-0.954253,-0.86093,-0.965901,-0.529561,-0.968537,0.740114,-1.004785,-1.043009,-0.990843,-0.381157,1.792398,1.670605,0.748575,0.40419,0.395265,-0.851316,-0.939848,-1.029343,-1.019409,'\'(-inf-6.266667]\''
'\'(-inf-14.9]\'',-0.967018,-0.893486,-0.891932,-0.511091,-0.967717,0.819851,-1.001037,-1.04126,-0.956806,-0.451205,1.179845,1.817483,1.07511,0.611646,0.474461,-0.845158,-0.939779,-1.026288,-1.019755,'\'(-inf-6.266667]\''
'\'(-inf-14.9]\'',-0.949258,-0.854116,-0.952452,-0.438614,-0.959668,0.754239,-1.004161,-1.044226,-0.990843,-0.425109,1.153442,1.62864,1.205119,0.708891,0.56743,-0.847486,-0.939112,-1.023683,-1.012893,'\'(-inf-6.266667]\''
'\'(-inf-14.9]\'',-0.950923,-0.883643,-0.856069,-0.492153,-0.95626,0.705205,-0.994823,-1.033954,-0.929577,-0.533615,0.876209,1.1644,1.050922,0.520884,0.460687,-0.834236,-0.936099,-1.020928,-1.009147,'\'(-inf-6.266667]\''
'\'(-inf-14.9]\'',-0.946483,-0.852602,-0.884087,-0.516936,-0.945813,0.876911,-0.978417,-1.024805,-0.985737,-0.736892,0.102597,0.647703,0.775786,0.430122,0.357388,-0.820687,-0.934837,-1.018228,-1.001655,'\'(-inf-6.266667]\''
'\'(-inf-14.9]\'',-0.924838,-0.842003,-0.956935,-0.459655,-0.935934,0.70296,-0.967468,-1.00654,-0.943191,-0.427856,0.078834,0.770976,0.827185,0.478744,0.336729,-0.812967,-0.933018,-1.013618,-0.994258,'\'(-inf-6.266667]\''
'\'(-inf-14.9]\'',-0.960913,-0.858659,-0.896415,-0.318208,-0.93243,0.54234,-0.964805,-1.001107,-1.01637,-0.367422,-0.222162,0.251657,0.736481,0.439847,0.340172,-0.817763,-0.939001,-1.007604,-0.992652,'\'(-inf-6.266667]\''
'\'(-inf-14.9]\'',-0.943153,-0.855631,-0.791066,-0.218844,-0.930253,0.458447,-0.959742,-0.991459,-0.968719,-0.274024,-0.108628,0.054945,0.781833,0.488469,0.426254,-0.829033,-0.936189,-1.00249,-0.988277,'\'(-inf-6.266667]\''
'\'(-inf-14.9]\'',-0.926503,-0.854116,-0.76641,-0.156887,-0.925392,0.363716,-0.953199,-0.982529,-0.921067,-0.230073,-0.032059,0.844415,0.618565,0.44633,0.415924,-0.834147,-0.934837,-0.998085,-0.983713,'\'(-inf-6.266667]\''
'\'(-inf-14.9]\'',-0.915402,-0.857145,-0.792186,-0.189152,-0.924066,0.420839,-0.951062,-0.983528,-0.880223,-0.256169,0.179166,0.327719,0.884631,0.605163,0.502007,-0.834247,-0.931546,-0.992207,-0.981415,'\'(-inf-6.266667]\''
'\'(-inf-14.9]\'',-0.893202,-0.838974,-0.732787,-0.276124,-0.921352,0.503969,-0.955993,-0.988711,-0.852994,-0.360555,-0.311932,0.464106,1.14465,0.802894,0.605306,-0.839162,-0.92845,-0.988156,-0.978172,'\'(-inf-6.266667]\''
'\'(-inf-14.9]\'',-0.898197,-0.83746,-0.785462,-0.255082,-0.916081,0.428297,-0.948694,-0.979063,-0.871714,-0.195735,-0.618209,-0.010626,1.193025,0.887173,0.629409,-0.825791,-0.925763,-0.98176,-0.971814,'\'(-inf-6.266667]\''
'\'(-inf-14.9]\'',-0.872667,-0.829132,-0.664422,-0.217207,-0.914345,0.263618,-0.947051,-0.97057,-0.81215,-0.140795,-0.755505,0.21756,1.159767,0.861241,0.615636,-0.828999,-0.925185,-0.975132,-0.968697,'\'(-inf-6.266667]\''
'\'(-inf-14.9]\'',-0.873777,-0.81399,-0.56916,-0.198971,-0.913335,0.130906,-0.940212,-0.95983,-0.84959,-0.100964,-0.977291,-0.299136,1.199072,0.952003,0.708605,-0.825594,-0.921353,-0.968245,-0.963629,'\'(-inf-6.266667]\''
'\'(-inf-14.9]\'',-0.853797,-0.813233,-0.702527,-0.049808,-0.913872,0.098321,-0.943894,-0.964607,-0.790026,0.013036,-1.201718,-0.755508,1.368387,1.03304,0.787801,-0.843481,-0.914471,-0.963076,-0.962087,'\'(-inf-6.266667]\''
'\'(-inf-14.9]\'',-0.819942,-0.810961,-0.481742,0.040672,-0.914156,-0.131932,-0.943434,-0.951212,-0.69132,0.169615,-1.405022,-0.734525,1.220237,0.948761,0.787801,-0.843208,-0.920422,-0.95567,-0.95853,'\'(-inf-6.266667]\''
'\'(-inf-14.9]\'',-0.791636,-0.805662,-0.380876,0.209006,-0.913525,-0.285176,-0.945275,-0.950275,-0.616439,0.169615,-1.447267,-0.944351,0.972312,0.819101,0.739594,-0.848489,-0.922698,-0.948592,-0.95299,'\'(-inf-6.266667]\''
'\'(-inf-14.9]\'',-0.760556,-0.781434,-0.215007,0.493538,-0.925045,-0.558972,-0.957407,-0.942532,-0.575595,0.621495,-1.55552,-1.059756,0.854396,0.725098,0.663842,-0.903271,-0.923955,-0.942414,-0.953619,'\'(6.266667-10.533333]\''
'\'(-inf-14.9]\'',-0.650665,-0.699667,0.046125,0.804021,-0.944392,-0.765193,-0.973255,-0.942095,-0.42243,0.72176,-1.328453,-1.19352,0.748575,0.605163,0.577759,-0.961174,-0.927609,-0.935963,-0.958121,'\'(6.266667-10.533333]\''
'\'(-inf-14.9]\'',-0.523569,-0.633799,0.600891,0.855457,-0.955723,-0.956004,-0.990253,-0.931229,-0.180769,0.952507,-1.706018,-1.044019,0.603448,0.637578,0.601863,-0.982691,-0.918955,-0.933781,-0.959065,'\'(6.266667-10.533333]\''
'\'(-inf-14.9]\'',-0.364837,-0.564146,0.567268,0.899878,-0.967559,-0.980883,-1.002451,-0.94222,0.149387,0.477278,-1.698097,-1.37974,0.346452,0.540333,0.563986,-1.017618,-0.915401,-0.934709,-0.956326,'\'(6.266667-10.533333]\''
'\'(-inf-14.9]\'',-0.235521,-0.524776,0.582959,0.909698,-0.976081,-1.060053,-1.004719,-0.930074,0.457419,0.815158,-1.750903,-1.146309,0.385758,0.601921,0.681058,-1.03408,-0.921011,-0.936113,-0.957334,'\'(6.266667-10.533333]\''
'\'(-inf-14.9]\'',-0.031279,-0.377141,0.682704,0.809866,-0.982014,-1.082079,-1.004654,-0.922768,0.751837,0.433326,-1.336374,-1.114835,0.624612,0.825584,0.853223,-1.031237,-0.917657,-0.935991,-0.958058,'\'(6.266667-10.533333]\''
'\'(-inf-14.9]\'',0.080277,-0.282503,0.652444,0.686187,-0.976838,-1.105483,-0.99604,-0.907624,0.881176,0.620121,-1.209639,-0.810587,0.470415,0.738064,0.794687,-1.035568,-0.906296,-0.937627,-0.952518,'\'(6.266667-10.533333]\''
'\'(14.9-27.8]\'',0.191278,-0.118968,0.466402,0.670756,-0.980089,-1.024289,-0.999196,-0.917272,0.853947,0.374266,-1.125149,-0.899763,0.44018,0.669993,0.725821,-1.026223,-0.90658,-0.938309,-0.953273,'\'(6.266667-10.533333]\''
'\'(14.9-27.8]\'',0.246778,-0.046286,0.177252,0.420593,-0.97223,-0.998332,-0.981474,-0.903347,0.860754,0.388001,-0.929766,-0.535191,0.688105,0.802894,0.794687,-1.010723,-0.902568,-0.937613,-0.94427,'\'(6.266667-10.533333]\''
'\'(14.9-27.8]\'',0.201823,0.007468,0.292688,0.467352,-0.960142,-0.985609,-0.970296,-0.898944,0.602075,0.286362,-0.998414,-0.446015,0.86649,0.935795,0.911759,-0.995922,-0.899756,-0.936127,-0.938352,'\'(6.266667-10.533333]\''
'\'(14.9-27.8]\'',0.226243,0.102863,0.276997,0.43579,-0.957775,-0.960765,-0.968816,-0.897695,0.462525,0.382507,-0.813592,-0.435523,0.881607,0.948761,0.922089,-0.976277,-0.89924,-0.934218,-0.939391,'\'(6.266667-10.533333]\''
'\'(14.9-27.8]\'',0.105807,-0.010703,0.316223,0.323567,-0.947927,-0.957256,-0.965824,-0.895666,0.348502,0.49788,-0.729102,-0.225697,0.639729,0.819101,0.822234,-0.969608,-0.89749,-0.932145,-0.932718,'\'(6.266667-10.533333]\''
'\'(14.9-27.8]\'',0.161307,0.138447,0.263548,0.227008,-0.943351,-0.908358,-0.962997,-0.896196,0.183424,0.162747,-0.692137,-0.183732,0.50065,0.763996,0.791244,-0.967488,-0.896386,-0.932431,-0.929979,'\'(6.266667-10.533333]\''
'\'(14.9-27.8]\'',0.205153,0.093778,0.090955,0.103797,-0.932872,-0.899981,-0.956125,-0.891232,0.418277,0.223181,-0.742303,-0.286022,0.533908,0.75103,0.774027,-0.946521,-0.892217,-0.932172,-0.924565,'\'(6.266667-10.533333]\''
'\'(14.9-27.8]\'',0.119127,0.089992,0.049488,0.089535,-0.917533,-0.846957,-0.931959,-0.87484,0.163002,0.205326,-0.467711,-0.165372,0.295053,0.653785,0.684502,-0.925722,-0.885456,-0.929172,-0.915468,'\'(6.266667-10.533333]\''
'\'(14.9-27.8]\'',0.011456,0.053651,-0.145521,-0.017778,-0.907654,-0.757412,-0.923016,-0.872841,-0.085466,0.274,-0.480912,0.283131,0.325288,0.650544,0.701718,-0.909715,-0.887411,-0.926362,-0.908574,'\'(6.266667-10.533333]\''
'\'(14.9-27.8]\'',-0.031834,-0.001617,-0.12871,0.039503,-0.900332,-0.73278,-0.912725,-0.866066,-0.093975,0.039133,-0.54956,-0.02374,0.415992,0.66351,0.681058,-0.90648,-0.885582,-0.923484,-0.904009,'\'(6.266667-10.533333]\''
'\'(14.9-27.8]\'',-0.160041,-0.04023,-0.110778,0.085093,-0.89263,-0.755659,-0.898555,-0.849486,-0.400306,0.464916,-0.634051,-0.091933,0.328312,0.585714,0.622522,-0.898201,-0.880125,-0.919939,-0.898532,'\'(6.266667-10.533333]\''
'\'(14.9-27.8]\'',-0.212766,-0.184079,-0.06819,0.184925,-0.891999,-0.681643,-0.886127,-0.846333,-0.238631,0.268506,-0.470351,0.075927,0.473438,0.695925,0.739594,-0.89155,-0.882412,-0.916461,-0.895951,'\'(6.266667-10.533333]\''
'\'(14.9-27.8]\'',-0.09233,-0.082627,0.191821,0.194978,-0.889979,-0.719793,-0.893722,-0.845146,-0.097379,0.257518,-0.486193,0.170349,0.50972,0.702408,0.725821,-0.889848,-0.876592,-0.910924,-0.893748,'\'(6.266667-10.533333]\''
'\'(14.9-27.8]\'',-0.10121,-0.160609,0.079747,0.181184,-0.884582,-0.757485,-0.876296,-0.823352,0.050681,0.502001,-0.335695,-0.076196,0.412969,0.66351,0.715491,-0.880695,-0.874458,-0.907269,-0.888554,'\'(6.266667-10.533333]\''
'\'(14.9-27.8]\'',-0.0668,-0.137896,0.238892,0.170429,-0.879627,-0.759858,-0.872022,-0.818419,0.105139,0.403109,-0.166715,0.314605,0.352499,0.605163,0.694832,-0.86954,-0.876014,-0.904869,-0.885185,'\'(6.266667-10.533333]\''
'\'(14.9-27.8]\'',-0.11231,-0.195436,0.245617,0.259272,-0.873693,-0.746941,-0.873666,-0.824289,0.094928,0.426458,0.287419,0.760485,0.304124,0.546816,0.632852,-0.864177,-0.875987,-0.899659,-0.882541,'\'(6.266667-10.533333]\''
'\'(14.9-27.8]\'',-0.11453,-0.174994,0.196304,0.266286,-0.873094,-0.740299,-0.870345,-0.819574,0.042171,0.474531,0.139561,0.521808,0.201326,0.423639,0.570873,-0.864588,-0.871671,-0.89689,-0.878638,'\'(6.266667-10.533333]\''
'\'(14.9-27.8]\'',-0.08012,-0.13941,0.380105,0.175105,-0.86271,-0.743601,-0.858509,-0.802402,0.067699,0.311085,0.419435,0.553282,0.137833,0.349085,0.529553,-0.839222,-0.870457,-0.893917,-0.873633,'\'(6.266667-10.533333]\''
'\'(14.9-27.8]\'',-0.068465,-0.097012,0.217598,0.101459,-0.856145,-0.679084,-0.852952,-0.799467,0.008135,0.441567,0.366628,0.980802,0.016894,0.212942,0.384935,-0.821249,-0.862113,-0.891462,-0.868785,'\'(6.266667-10.533333]\''
'\'(14.9-27.8]\'',-0.165591,-0.190136,0.107766,0.23262,-0.848507,-0.5957,-0.848842,-0.803838,-0.080361,0.404482,0.247814,0.25428,0.137833,0.368534,0.502007,-0.832922,-0.864248,-0.887357,-0.863025,'\'(6.266667-10.533333]\''
'\'(-inf-14.9]\'',-0.180021,-0.194679,0.145871,0.461507,-0.839101,-0.623806,-0.835231,-0.785822,-0.114397,0.570675,0.496004,1.345375,0.192255,0.449571,0.563986,-0.806268,-0.857361,-0.883402,-0.858618,'\'(6.266667-10.533333]\''
'\'(-inf-14.9]\'',-0.244956,-0.226477,0.115611,0.038334,-0.826382,-0.56152,-0.819909,-0.775518,-0.242035,0.540459,0.760035,1.660114,0.201326,0.481986,0.588089,-0.784802,-0.854832,-0.879474,-0.852039,'\'(6.266667-10.533333]\''
'\'(-inf-14.9]\'',-0.312112,-0.259033,-0.12983,0.071767,-0.815745,-0.476022,-0.804686,-0.768805,-0.374778,0.570675,0.760035,1.211611,0.183185,0.436605,0.5571,-0.767922,-0.850048,-0.874633,-0.84568,'\'(6.266667-10.533333]\''
'\'(-inf-14.9]\'',-0.316552,-0.297645,0.067419,0.131853,-0.804383,-0.404339,-0.788806,-0.758346,-0.301599,0.212193,0.781158,1.418814,0.304124,0.485227,0.588089,-0.754261,-0.85142,-0.871237,-0.837873,'\'(6.266667-10.533333]\''
'\'(-inf-14.9]\'',-0.322102,-0.3302,-0.035688,0.04301,-0.791758,-0.438085,-0.782066,-0.744982,-0.245439,0.739615,1.002944,1.214233,0.29203,0.426881,0.52611,-0.740741,-0.849764,-0.868305,-0.82928,'\'(6.266667-10.533333]\''
'\'(-inf-14.9]\'',-0.328207,-0.370327,-0.055862,0.043711,-0.780837,-0.331619,-0.777956,-0.750602,-0.173962,0.35641,0.831323,1.646999,0.334359,0.452813,0.543326,-0.738332,-0.846168,-0.865973,-0.820277,'\'(6.266667-10.533333]\''
'\'(-inf-14.9]\'',-0.367612,-0.42711,0.108887,0.071065,-0.773231,-0.317406,-0.766219,-0.736458,-0.167154,0.407229,1.076873,1.547332,0.464368,0.514401,0.56743,-0.736692,-0.846441,-0.862059,-0.813257,'\'(6.266667-10.533333]\''
'\'(-inf-14.9]\'',-0.358177,-0.396069,0.016986,0.078079,-0.758807,-0.28227,-0.757637,-0.733742,-0.207998,0.389374,0.796999,1.361112,0.512744,0.517642,0.54677,-0.729512,-0.845053,-0.857272,-0.802649,'\'(6.266667-10.533333]\''
'\'(-inf-14.9]\'',-0.393698,-0.415753,0.019228,0.032489,-0.750348,-0.205083,-0.74613,-0.722439,-0.272668,0.389374,1.018786,1.605034,0.645776,0.608404,0.608749,-0.726766,-0.838724,-0.855267,-0.795315,'\'(6.266667-10.533333]\''
'\'(-inf-14.9]\'',-0.385373,-0.428624,-0.033447,0.006771,-0.738576,-0.160871,-0.722819,-0.698678,-0.218209,0.445687,1.05311,1.605034,0.639729,0.614887,0.629409,-0.723376,-0.836153,-0.851135,-0.786469,'\'(6.266667-10.533333]\''
'\'(-inf-14.9]\'',-0.433658,-0.457394,-0.18923,0.035294,-0.731096,0.01031,-0.711509,-0.701332,-0.301599,0.177856,1.008224,1.867317,0.642753,0.660268,0.667285,-0.720349,-0.834655,-0.847343,-0.779009,'\'(6.266667-10.533333]\''
'\'(-inf-14.9]\'',-0.474728,-0.491464,-0.135434,-0.004919,-0.725288,-0.004992,-0.702336,-0.689404,-0.350953,0.308338,0.97126,0.755239,0.739504,0.754272,0.760254,-0.746482,-0.841142,-0.84137,-0.773311,'\'(6.266667-10.533333]\''
'\'(-inf-14.9]\'',-0.507474,-0.602001,-0.188109,0.145881,-0.714115,0.06191,-0.697897,-0.690528,-0.202893,0.225928,0.960699,0.807696,0.757645,0.773721,0.784357,-0.736911,-0.833535,-0.838028,-0.764655,'\'(6.266667-10.533333]\''
'\'(-inf-14.9]\'',-0.536889,-0.566417,-0.161211,-0.014271,-0.697955,0.1171,-0.690138,-0.682566,-0.373076,0.372892,1.127039,1.578806,0.748575,0.783445,0.787801,-0.702639,-0.825402,-0.831632,-0.754708,'\'(6.266667-10.533333]\''
'\'(-inf-14.9]\'',-0.552984,-0.592158,-0.248629,-0.121818,-0.675799,0.294056,-0.669128,-0.667517,-0.364567,0.206699,1.520445,2.011572,0.790903,0.822343,0.825677,-0.66668,-0.816964,-0.824854,-0.743911,'\'(-inf-6.266667]\''
'\'(-inf-14.9]\'',-0.598495,-0.583073,-0.316994,-0.117142,-0.664847,0.295104,-0.656799,-0.657463,-0.52454,0.371519,1.039908,1.691587,0.902772,0.887173,0.894543,-0.657654,-0.81474,-0.820135,-0.735317,'\'(-inf-6.266667]\''
'\'(-inf-14.9]\'',-0.636235,-0.622443,-0.183626,-0.130001,-0.650928,0.333332,-0.637927,-0.642632,-0.551769,0.258892,1.612856,1.678473,0.984406,0.94552,0.932419,-0.64567,-0.80871,-0.814871,-0.726346,'\'(-inf-6.266667]\''
'\'(-inf-14.9]\'',-0.62458,-0.608815,-0.272164,-0.00866,-0.642911,0.23366,-0.646245,-0.641758,-0.546664,0.644844,1.092715,1.736175,1.07511,1.003867,0.994398,-0.647076,-0.810997,-0.81003,-0.720302,'\'(-inf-6.266667]\''
'\'(-inf-14.9]\'',-0.697285,-0.643642,-0.16009,-0.01544,-0.634105,0.350982,-0.635033,-0.638261,-0.69132,0.355037,0.841885,1.484384,1.050922,0.935795,0.915203,-0.639593,-0.806344,-0.804452,-0.713849,'\'(-inf-6.266667]\''
'\'(-inf-14.9]\'',-0.660655,-0.634556,-0.253112,-0.137716,-0.629749,0.365713,-0.627175,-0.629393,-0.599421,0.469037,1.000304,1.416191,1.150697,0.96821,0.918646,-0.635011,-0.804683,-0.799037,-0.711708,'\'(-inf-6.266667]\''
'\'(-inf-14.9]\'',-0.65455,-0.655755,-0.310269,-0.111297,-0.619176,0.509869,-0.611953,-0.620495,-0.533049,0.256145,1.079513,1.445042,1.30187,1.026557,0.994398,-0.620606,-0.7983,-0.792273,-0.704437,'\'(-inf-6.266667]\''
'\'(-inf-14.9]\'',-0.697285,-0.703453,-0.256474,-0.100776,-0.605447,0.443622,-0.600379,-0.605445,-0.556875,0.416844,1.116477,1.741421,1.564913,1.101111,1.052934,-0.60605,-0.792712,-0.785795,-0.694836,'\'(-inf-6.266667]\''
'\'(-inf-14.9]\'',-0.6823,-0.720866,-0.118623,0.01659,-0.596609,0.400467,-0.597223,-0.597733,-0.471783,0.519856,1.177205,1.61028,1.652593,1.178907,1.1218,-0.596413,-0.787802,-0.778935,-0.68854,'\'(-inf-6.266667]\''
'\'(-inf-14.9]\'',-0.692845,-0.703453,-0.119744,0.025475,-0.592285,0.425548,-0.585157,-0.589989,-0.54326,0.263012,0.234613,0.52443,1.685852,1.217805,1.15279,-0.606813,-0.790115,-0.77378,-0.683661,'\'(-inf-6.266667]\''
'\'(-inf-14.9]\'',-0.66676,-0.689068,-0.163453,0.030151,-0.584489,0.351753,-0.57263,-0.576095,-0.495609,0.41135,0.316462,0.23592,1.634453,1.195115,1.15279,-0.597449,-0.786966,-0.768106,-0.677271,'\'(-inf-6.266667]\''
'\'(-inf-14.9]\'',-0.62902,-0.658784,-0.195954,0.027813,-0.571107,0.394565,-0.567665,-0.573379,-0.447957,0.334434,0.918454,1.093583,1.637476,1.217805,1.159677,-0.59152,-0.779379,-0.763715,-0.670661,'\'(-inf-6.266667]\''
'\'(-inf-14.9]\'',-0.680635,-0.691339,-0.226214,0.29668,-0.573064,0.486556,-0.58006,-0.586399,-0.533049,0.464916,0.593695,0.833924,1.598171,1.234013,1.180336,-0.614211,-0.780263,-0.756118,-0.671353,'\'(-inf-6.266667]\''
'\'(-inf-14.9]\'',-0.69895,-0.713295,-0.238542,-0.018947,-0.561323,0.56277,-0.572564,-0.58643,-0.539856,0.238289,0.823403,1.169645,1.598171,1.230771,1.20444,-0.597442,-0.776299,-0.749777,-0.6632,'\'(-inf-6.266667]\''
'\'(-inf-14.9]\'',-0.736691,-0.712538,-0.329322,0.037165,-0.551254,0.480062,-0.561122,-0.571849,-0.657283,0.477278,0.707229,1.26669,1.43188,1.104353,1.087367,-0.597135,-0.774643,-0.742508,-0.655992,'\'(-inf-6.266667]\''
'\'(-inf-14.9]\'',-0.763331,-0.75115,-0.143279,0.127177,-0.547814,0.447315,-0.550371,-0.560483,-0.652177,0.398988,0.427356,0.865398,1.453044,1.12056,1.101141,-0.600229,-0.776314,-0.731884,-0.652624,'\'(-inf-6.266667]\''
'\'(-inf-14.9]\'',-0.718931,-0.702696,-0.324839,0.194978,-0.545195,0.353402,-0.557933,-0.557548,-0.624948,0.956628,0.577853,0.912609,1.555842,1.172424,1.128687,-0.612705,-0.761994,-0.727151,-0.646737,'\'(-inf-6.266667]\''
'\'(-inf-14.9]\'',-0.736136,-0.70421,-0.062586,0.157804,-0.544342,0.461723,-0.53939,-0.543997,-0.674301,0.475904,0.701948,1.054241,1.815861,1.285877,1.231986,-0.612834,-0.75803,-0.724574,-0.6468,'\'(-inf-6.266667]\''
'\'(-inf-14.9]\'',-0.710051,-0.705724,-0.110778,0.234724,-0.539482,0.459175,-0.537285,-0.538689,-0.590911,0.603639,0.287419,0.658195,2.299617,1.681339,1.565986,-0.599688,-0.760937,-0.717182,-0.640379,'\'(-inf-6.266667]\''
'\'(-inf-14.9]\'',-0.69895,-0.689825,-0.254232,0.286159,-0.536578,0.330467,-0.531696,-0.535192,-0.592613,0.591278,-0.253845,0.246411,2.2845,1.778584,1.686501,-0.602775,-0.755569,-0.712872,-0.634618,'\'(-inf-6.266667]\''
'\'(-inf-14.9]\'',-0.67786,-0.695125,-0.086122,0.356065,-0.533453,0.283931,-0.519893,-0.521267,-0.516031,0.567928,-0.311932,0.178218,2.160537,1.613268,1.596975,-0.601469,-0.754402,-0.708385,-0.632226,'\'(-inf-6.266667]\''
'\'(-inf-14.9]\'',-0.63568,-0.692096,-0.0525,0.290835,-0.529413,0.116034,-0.521668,-0.511775,-0.393498,0.845375,-0.243284,-0.233566,2.184725,1.716995,1.738151,-0.591306,-0.745738,-0.702371,-0.627535,'\'(6.266667-10.533333]\''
'\'(-inf-14.9]\'',-0.632905,-0.72238,0.101042,0.30837,-0.526794,0.06509,-0.517854,-0.50756,-0.316916,0.734121,-0.45715,-0.20996,2.747091,2.319914,2.292521,-0.590591,-0.749208,-0.696779,-0.622562,'\'(6.266667-10.533333]\''
'\'(-inf-14.9]\'',-0.577959,-0.63607,0.181735,0.38225,-0.52329,0.028586,-0.527126,-0.515522,-0.342443,0.683302,-1.014256,-1.004676,3.321552,2.601924,2.409594,-0.598656,-0.755438,-0.69101,-0.617305,'\'(6.266667-10.533333]\''
'\'(-inf-14.9]\'',-0.446423,-0.58383,0.31174,0.830908,-0.527867,-0.345718,-0.542908,-0.510869,-0.056535,1.06376,-1.489512,-0.994185,2.559636,2.07356,1.968851,-0.636617,-0.760848,-0.681914,-0.61208,'\'(6.266667-10.533333]\''
'\'(-inf-14.9]\'',-0.420893,-0.562631,0.558303,1.233274,-0.541407,-0.585098,-0.552377,-0.500316,-0.025902,1.585689,-1.349575,-1.319415,1.377457,1.460917,1.524666,-0.682624,-0.760606,-0.677877,-0.61699,'\'(6.266667-10.533333]\''
'\'(-inf-14.9]\'',-0.409793,-0.521748,0.862022,1.192125,-0.551475,-0.585837,-0.561024,-0.504968,-0.083764,1.111833,-0.671015,-0.613875,1.00557,1.221047,1.386934,-0.706248,-0.755065,-0.674686,-0.618658,'\'(6.266667-10.533333]\''
'\'(-inf-14.9]\'',-0.279367,-0.437709,0.792537,0.968848,-0.559713,-0.623425,-0.557276,-0.493135,0.127263,1.179134,-0.298731,-0.422409,1.15372,1.324775,1.548769,-0.719113,-0.746532,-0.669776,-0.618375,'\'(6.266667-10.533333]\''
'\'(-inf-14.9]\'',-0.186681,-0.402882,0.614339,0.82366,-0.551539,-0.604657,-0.556355,-0.494821,0.333185,1.120074,-0.013577,0.015603,1.634453,1.74941,1.841449,-0.71338,-0.742389,-0.66623,-0.615322,'\'(6.266667-10.533333]\''
'\'(-inf-14.9]\'',-0.105095,-0.375627,0.563906,0.611138,-0.54794,-0.502285,-0.548037,-0.495039,0.522089,0.756097,0.29534,0.107401,2.021457,2.002247,1.982625,-0.68332,-0.741033,-0.661893,-0.613968,'\'(6.266667-10.533333]\''
'\'(-inf-14.9]\'',-0.10676,-0.304459,0.486575,0.401889,-0.539198,-0.509667,-0.540146,-0.485454,0.357011,0.874218,-0.016217,0.243788,2.314734,2.080043,2.065264,-0.660067,-0.731191,-0.657897,-0.607798,'\'(6.266667-10.533333]\''
'\'(-inf-14.9]\'',-0.093995,-0.24919,0.435021,0.28312,-0.531086,-0.435855,-0.53265,-0.480364,0.271919,0.750603,0.028668,0.209692,2.816631,2.394468,2.38549,-0.629171,-0.727653,-0.654188,-0.603203,'\'(6.266667-10.533333]\''
'\'(-inf-14.9]\'',-0.05126,-0.238591,0.139147,0.270962,-0.5249,-0.436265,-0.529723,-0.487108,0.379135,0.683302,-0.325134,0.136252,3.037345,2.530611,2.440583,-0.616732,-0.727122,-0.631453,-0.59889,'\'(6.266667-10.533333]\''
'\'(-inf-14.9]\'',-0.060695,-0.150767,0.25122,0.28499,-0.52206,-0.532325,-0.519169,-0.466064,0.152791,0.986845,-0.399063,0.306736,2.795467,2.375019,2.347614,-0.62873,-0.716844,-0.627184,-0.595113,'\'(6.266667-10.533333]\''
'\'(-inf-14.9]\'',-0.08567,-0.164395,0.338638,0.358636,-0.519787,-0.505741,-0.51141,-0.45932,0.106841,0.944266,-0.45715,-0.482734,2.943617,2.582475,2.561099,-0.636469,-0.711035,-0.620652,-0.591776,'\'(6.266667-10.533333]\''
'\'(-inf-14.9]\'',-0.12341,-0.185594,0.35657,0.259272,-0.516473,-0.496479,-0.498916,-0.449609,0.038768,1.00058,-0.499395,-0.325365,2.683598,2.582475,2.536996,-0.626961,-0.708285,-0.616792,-0.591146,'\'(6.266667-10.533333]\''
'\'(-inf-14.9]\'',-0.148385,-0.249947,0.365536,0.272131,-0.514169,-0.477961,-0.48297,-0.437994,0.106841,0.80417,-0.480912,-0.183732,2.86803,2.770481,2.72982,-0.6349,-0.711219,-0.615387,-0.587212,'\'(6.266667-10.533333]\''
'\'(-inf-14.9]\'',-0.153936,-0.237077,0.542612,0.300888,-0.513759,-0.547965,-0.483233,-0.428721,0.060892,1.111833,-0.525798,-0.760754,3.436444,2.977937,2.874439,-0.6242,-0.714541,-0.610109,-0.586708,'\'(6.266667-10.533333]\''
'\'(-inf-14.9]\'',-0.13784,-0.256761,0.328551,0.378509,-0.507636,-0.525426,-0.507892,-0.454511,0.154493,1.017062,-1.045939,-1.009922,3.031298,2.757515,2.657511,-0.614348,-0.71043,-0.605009,-0.585071,'\'(6.266667-10.533333]\''
'\'(-inf-14.9]\'',-0.184461,-0.284774,0.334155,0.367988,-0.504132,-0.495751,-0.494905,-0.449516,0.074506,0.971736,-1.154192,-1.020413,3.291317,3.029801,2.936418,-0.601983,-0.706903,-0.598844,-0.581955,'\'(6.266667-10.533333]\''
'\'(-inf-14.9]\'',-0.142835,-0.22572,0.422693,0.458936,-0.505268,-0.537534,-0.495036,-0.444239,0.069401,0.989592,-1.275647,-1.285318,3.593664,3.279396,3.163676,-0.604396,-0.699663,-0.59448,-0.581703,'\'(6.266667-10.533333]\''
'\'(-inf-14.9]\'',-0.131735,-0.263575,0.464161,0.566716,-0.508046,-0.641473,-0.515586,-0.457696,0.188529,1.227206,-1.38654,-1.36138,3.533195,3.399331,3.294521,-0.613552,-0.701582,-0.588943,-0.582962,'\'(6.266667-10.533333]\''
'\'(-inf-14.9]\'',-0.108425,-0.248433,0.609856,0.658131,-0.511107,-0.77044,-0.505262,-0.434903,0.22597,1.451086,-1.692816,-1.461048,3.188519,3.230774,3.235985,-0.628231,-0.707823,-0.585875,-0.58101,'\'(6.266667-10.533333]\''
'\'(-inf-14.9]\'',-0.085115,-0.241619,0.784692,0.746741,-0.517704,-0.822855,-0.510884,-0.428284,0.28213,1.665352,-1.647931,-1.555469,2.290547,2.57275,2.629965,-0.650129,-0.708548,-0.578606,-0.582049,'\'(6.266667-10.533333]\''
'\'(-inf-14.9]\'',-0.06902,-0.22042,0.985304,0.930272,-0.526415,-0.901178,-0.529362,-0.4384,0.283832,1.85352,-1.521196,-1.364003,2.42358,2.644063,2.743593,-0.670337,-0.706603,-0.581169,-0.583843,'\'(6.266667-10.533333]\''
'\'(-inf-14.9]\'',-0.049595,-0.209064,1.080566,0.856392,-0.536831,-0.91954,-0.527816,-0.432874,0.317869,1.819183,-1.526476,-1.539732,2.86803,2.98442,3.04316,-0.708121,-0.71155,-0.528731,-0.584977,'\'(6.266667-10.533333]\''
'\'(-inf-14.9]\'',0.144102,-0.138653,1.134362,0.849612,-0.536894,-0.987432,-0.525515,-0.421071,0.753539,1.659858,-1.489512,-1.479407,2.991993,2.948764,2.988067,-0.671251,-0.699611,-0.533832,-0.585008,'\'(6.266667-10.533333]\''
'\'(-inf-14.9]\'',0.258988,-0.078842,1.117551,0.95599,-0.540965,-1.032023,-0.528474,-0.417949,0.971374,1.780725,-1.270366,-1.308924,2.756162,2.76724,2.7918,-0.683694,-0.703832,-0.532618,-0.584442,'\'(6.266667-10.533333]\''
'\'(-inf-14.9]\'',0.326144,0.029424,1.252039,1.098606,-0.549929,-1.097632,-0.53163,-0.410049,0.933933,1.856267,-1.278287,-1.345643,2.765232,2.773723,2.795243,-0.700585,-0.701708,-0.530027,-0.586519,'\'(6.266667-10.533333]\''
'\'(-inf-14.9]\'',0.431595,0.117248,1.328249,1.083643,-0.551286,-1.111027,-0.513876,-0.390347,1.059869,1.765617,-1.106667,-1.062378,2.57173,2.692685,2.70916,-0.712591,-0.696635,-0.536368,-0.584347,'\'(6.266667-10.533333]\''
'\'(14.9-27.8]\'',0.528721,0.243684,1.460496,1.157056,-0.558924,-1.171001,-0.532715,-0.4019,1.073484,1.382411,-1.212279,-1.384986,2.792443,2.913107,2.943305,-0.717233,-0.704095,-0.532836,-0.584379,'\'(6.266667-10.533333]\''
'\'(14.9-27.8]\'',0.586441,0.267912,1.333853,1.047171,-0.569781,-1.226413,-0.534359,-0.393751,1.196016,1.826051,-0.866398,-0.69256,2.541495,2.796413,2.822789,-0.723302,-0.695957,-0.529809,-0.588628,'\'(6.266667-10.533333]\''
'\'(14.9-27.8]\'',0.664697,0.305767,1.394373,1.297334,-0.574768,-1.247705,-0.529756,-0.38838,1.350883,1.779352,-1.177955,-1.007299,1.994246,2.449573,2.516336,-0.739561,-0.698244,-0.531459,-0.588376,'\'(6.266667-10.533333]\''
'\'(14.9-27.8]\'',0.771813,0.420847,1.551276,1.443458,-0.580449,-1.301177,-0.533998,-0.381917,1.420658,1.87687,-0.871679,-0.750262,1.818885,2.206461,2.268418,-0.744161,-0.691903,-0.531991,-0.590202,'\'(6.266667-10.533333]\''
'\'(14.9-27.8]\'',0.936094,0.593466,1.525499,1.404414,-0.589161,-1.317533,-0.543499,-0.381199,1.536383,1.749135,-0.589165,-0.6742,1.356293,1.736444,1.776027,-0.761052,-0.686425,-0.533464,-0.590485,'\'(6.266667-10.533333]\''
'\'(14.9-27.8]\'',1.102596,0.66312,1.578174,1.132507,-0.59298,-1.336537,-0.546886,-0.371645,1.890365,1.887858,-0.37794,-0.152258,1.307917,1.600302,1.652068,-0.766593,-0.679028,-0.539355,-0.589793,'\'(10.533333-inf)\''
'\'(14.9-27.8]\'',1.200832,0.834225,1.473945,0.802852,-0.593453,-1.31852,-0.549516,-0.370614,1.806975,1.839785,-0.055822,-0.333233,1.23233,1.548438,1.648625,-0.779047,-0.678944,-0.542819,-0.588754,'\'(10.533333-inf)\''
'\'(14.9-27.8]\'',1.204162,0.912207,1.347302,0.696474,-0.586541,-1.284468,-0.545275,-0.382729,1.641897,1.448339,0.142202,0.409026,1.14465,1.486849,1.621078,-0.746904,-0.682172,-0.549038,-0.584032,'\'(6.266667-10.533333]\''
'\'(14.9-27.8]\'',1.189177,0.949305,1.196002,0.639194,-0.588845,-1.285321,-0.547642,-0.384633,1.512557,1.534869,0.261016,0.705405,1.235354,1.561404,1.710604,-0.757688,-0.680842,-0.550102,-0.58378,'\'(6.266667-10.533333]\''
'\'(14.9-27.8]\'',1.173082,0.972018,1.165742,0.599448,-0.583385,-1.258616,-0.544683,-0.386101,1.412149,1.239568,0.271577,0.461483,1.271636,1.503057,1.638295,-0.743099,-0.667988,-0.555107,-0.577485,'\'(6.266667-10.533333]\''
'\'(14.9-27.8]\'',1.03877,0.944763,1.123154,0.673094,-0.574737,-1.234182,-0.532156,-0.378576,1.061571,1.290387,0.511846,0.110024,1.253495,1.483608,1.600419,-0.720682,-0.666621,-0.554398,-0.571378,'\'(6.266667-10.533333]\''
'\'(14.9-27.8]\'',1.132011,0.975047,0.974096,0.542168,-0.565899,-1.167699,-0.52946,-0.379575,1.279406,1.279399,0.783798,0.907363,1.229307,1.486849,1.593532,-0.709627,-0.658299,-0.551957,-0.565712,'\'(6.266667-10.533333]\''
'\'(14.9-27.8]\'',1.094271,1.077256,0.914697,0.431114,-0.554,-1.171482,-0.496878,-0.34576,0.933933,1.492291,1.047829,0.794581,1.459091,1.681339,1.755367,-0.698657,-0.646649,-0.550007,-0.557622,'\'(6.266667-10.533333]\''
'\'(14.9-27.8]\'',1.016015,0.856939,0.79702,0.26161,-0.540871,-1.075359,-0.477973,-0.349601,1.189209,1.180508,1.116477,0.930968,1.622359,1.869346,1.937862,-0.671621,-0.643621,-0.547115,-0.549375,'\'(6.266667-10.533333]\''
'\'(14.9-27.8]\'',0.872269,0.808484,1.036858,0.391368,-0.550592,-1.067304,-0.464821,-0.33477,0.857351,1.418122,0.899972,1.258821,1.722133,2.005489,2.099697,-0.649782,-0.651359,-0.541251,-0.562344,'\'(6.266667-10.533333]\''
'\'(14.9-27.8]\'',0.752388,0.741102,0.744345,0.265117,-0.515305,-1.022204,-0.451407,-0.332678,0.641218,1.604918,0.562012,0.734256,1.610265,1.940659,2.030831,-0.622775,-0.641586,-0.534909,-0.532628,'\'(6.266667-10.533333]\''
'\'(14.9-27.8]\'',0.638057,0.616937,0.701757,0.23449,-0.506689,-0.898772,-0.45065,-0.344293,0.569741,1.224459,0.907893,0.747371,1.504443,1.892036,1.992955,-0.608101,-0.633495,-0.532073,-0.529229,'\'(6.266667-10.533333]\''
'\'(14.9-27.8]\'',0.575341,0.533655,0.598649,0.189133,-0.495484,-0.854508,-0.427964,-0.334864,0.564635,1.026676,0.781158,0.930968,1.543748,1.934176,2.044604,-0.599559,-0.626597,-0.526004,-0.522838,'\'(6.266667-10.533333]\''
'\'(14.9-27.8]\'',0.48876,0.453402,0.460798,0.078313,-0.48428,-0.792041,-0.419186,-0.331772,0.479543,1.175014,0.672905,0.676554,1.595147,1.976315,2.09281,-0.590088,-0.623222,-0.52048,-0.514969,'\'(6.266667-10.533333]\''
'\'(14.9-27.8]\'',0.419385,0.437503,0.473126,-0.004919,-0.470298,-0.721715,-0.412446,-0.335457,0.302552,0.974483,1.171924,1.224725,1.531654,1.92121,2.037717,-0.551897,-0.610968,-0.516893,-0.505399,'\'(6.266667-10.533333]\''
'\'(14.9-27.8]\'',0.273418,0.28154,0.420452,-0.059861,-0.455022,-0.636613,-0.391962,-0.32278,0.205548,0.999206,1.623418,2.17681,1.573983,1.976315,2.096253,-0.543022,-0.611619,-0.506187,-0.496586,'\'(6.266667-10.533333]\''
'\'(14.9-27.8]\'',0.212368,0.240656,0.438384,-0.029234,-0.446437,-0.628704,-0.387261,-0.31972,0.110245,1.010194,0.931655,0.610984,1.740274,2.131907,2.261532,-0.533614,-0.615499,-0.496886,-0.490007,'\'(6.266667-10.533333]\''
'\'(14.9-27.8]\'',0.199603,0.228542,0.391313,0.080417,-0.43498,-0.574888,-0.375128,-0.307699,0.098332,1.047278,1.066311,1.104075,1.834002,2.245359,2.368274,-0.521752,-0.605332,-0.486085,-0.481602,'\'(6.266667-10.533333]\''
'\'(14.9-27.8]\'',0.214033,0.173274,0.310619,0.038334,-0.425322,-0.506426,-0.346952,-0.290495,0.266814,0.779447,0.9739,0.902117,2.063786,2.504679,2.636851,-0.511127,-0.601688,-0.47647,-0.474614,'\'(6.266667-10.533333]\''
'\'(14.9-27.8]\'',0.063071,0.086207,0.182855,0.043711,-0.413296,-0.436955,-0.333866,-0.28525,-0.000374,0.908555,1.166643,1.083092,2.190772,2.605165,2.688501,-0.503832,-0.593655,-0.473006,-0.46602,'\'(6.266667-10.533333]\''
'\'(14.9-27.8]\'',0.077502,0.096806,0.405882,0.039503,-0.403512,-0.468966,-0.338995,-0.28041,0.020048,1.088483,0.614818,0.791959,2.175655,2.537094,2.619635,-0.498236,-0.602608,-0.465983,-0.458591,'\'(6.266667-10.533333]\''
'\'(14.9-27.8]\'',0.058631,0.040023,0.342,0.175105,-0.395843,-0.516498,-0.347938,-0.289465,0.089823,1.328845,0.416794,0.409026,2.112162,2.345845,2.399264,-0.495823,-0.605716,-0.455809,-0.452107,'\'(6.266667-10.533333]\''
'\'(14.9-27.8]\'',0.022001,-0.008431,0.502266,0.202693,-0.385995,-0.454552,-0.337187,-0.284001,0.086419,0.996459,0.398312,0.702783,2.039598,2.297223,2.330398,-0.501534,-0.597803,-0.450231,-0.442569,'\'(6.266667-10.533333]\''
'\'(14.9-27.8]\'',0.015341,-0.026602,0.316223,0.314215,-0.377,-0.448306,-0.332321,-0.278943,0.106841,1.131062,0.311182,0.419518,1.834002,2.144873,2.206439,-0.502355,-0.595064,-0.445648,-0.433881,'\'(6.266667-10.533333]\''
'\'(14.9-27.8]\'',-0.033499,-0.030387,0.275877,0.256934,-0.365859,-0.434393,-0.321339,-0.274228,-0.034411,1.088483,0.71515,0.679177,1.507467,1.908244,2.003284,-0.495634,-0.584218,-0.441584,-0.423178,'\'(6.266667-10.533333]\''
'\'(14.9-27.8]\'',-0.054035,-0.052343,0.52468,0.156869,-0.361913,-0.402461,-0.313087,-0.261395,-0.048026,1.05964,0.670264,0.47722,1.359316,1.823965,1.979181,-0.49465,-0.586663,-0.439347,-0.420314,'\'(6.266667-10.533333]\''
'\'(14.9-27.8]\'',-0.11897,-0.111397,0.477609,0.087431,-0.353549,-0.453198,-0.310489,-0.256899,-0.114397,1.466195,0.760035,0.736879,1.265589,1.778584,1.937862,-0.495708,-0.58231,-0.437847,-0.41194,'\'(6.266667-10.533333]\''
'\'(14.9-27.8]\'',-0.060695,-0.089441,0.383467,0.185626,-0.349415,-0.426534,-0.302171,-0.252184,0.014942,1.196989,0.765316,0.529676,1.347223,1.843414,1.982625,-0.489783,-0.57608,-0.434097,-0.406211,'\'(6.266667-10.533333]\''
'\'(14.9-27.8]\'',-0.05792,-0.085656,0.373381,0.134424,-0.338715,-0.389237,-0.287902,-0.238071,0.014942,1.262917,0.936936,0.970311,1.519561,1.969832,2.10314,-0.486815,-0.573094,-0.433988,-0.396799,'\'(6.266667-10.533333]\''
'\'(14.9-27.8]\'',-0.058475,-0.0637,0.431659,0.21602,-0.332529,-0.440691,-0.289644,-0.237978,-0.036113,1.235447,0.770596,1.02539,1.30187,1.804516,1.955078,-0.491278,-0.565466,-0.433319,-0.390094,'\'(6.266667-10.533333]\''
'\'(14.9-27.8]\'',-0.11453,-0.171966,0.500024,0.190302,-0.323881,-0.390507,-0.289776,-0.241006,0.035364,1.240941,0.88941,0.655572,1.096274,1.587336,1.755367,-0.48784,-0.561717,-0.433497,-0.381092,'\'(6.266667-10.533333]\''
'\'(14.9-27.8]\'',-0.10454,-0.137139,0.456315,0.188666,-0.319241,-0.422416,-0.303815,-0.249405,-0.012287,1.289014,0.907893,0.64508,0.896725,1.347465,1.51778,-0.488899,-0.565071,-0.43081,-0.375205,'\'(6.266667-10.533333]\''
'\'(14.9-27.8]\'',-0.093995,-0.147738,0.497783,0.122501,-0.313276,-0.440945,-0.293886,-0.238321,0.043873,1.312363,0.857727,0.666063,0.914866,1.37988,1.569429,-0.499058,-0.564025,-0.43111,-0.367902,'\'(6.266667-10.533333]\''
'\'(14.9-27.8]\'',-0.1334,-0.181808,0.454074,0.244777,-0.307216,-0.377188,-0.284417,-0.239226,-0.000374,1.153038,1.150801,0.82081,0.972312,1.415536,1.576316,-0.492559,-0.55543,-0.431083,-0.361764,'\'(6.266667-10.533333]\''
'\'(14.9-27.8]\'',-0.14228,-0.17348,0.515714,0.263948,-0.300746,-0.357579,-0.265939,-0.220055,-0.046324,1.22858,1.435955,0.64508,0.978359,1.415536,1.590089,-0.485061,-0.538296,-0.430687,-0.354744,'\'(6.266667-10.533333]\''
'\'(14.9-27.8]\'',-0.112865,-0.199221,0.487696,0.25109,-0.294812,-0.391876,-0.259692,-0.212562,0.101736,1.132435,0.979181,1.059487,0.960218,1.376639,1.545326,-0.492163,-0.556423,-0.425928,-0.348858,'\'(6.266667-10.533333]\''
'\'(14.9-27.8]\'',-0.161706,-0.125025,0.38795,0.193342,-0.288184,-0.331363,-0.254431,-0.212874,-0.214806,1.186002,0.844525,0.702783,0.920913,1.243737,1.386934,-0.485149,-0.553495,-0.422764,-0.341964,'\'(6.266667-10.533333]\''
'\'(14.9-27.8]\'',-0.161151,-0.194679,0.486575,0.155232,-0.282945,-0.373385,-0.24756,-0.206036,-0.056535,1.089857,1.113837,1.342752,0.85742,1.065455,1.207883,-0.465053,-0.545872,-0.4199,-0.336676,'\'(6.266667-10.533333]\''
'\'(-inf-14.9]\'',-0.227196,-0.284017,0.340879,0.068727,-0.279063,-0.308542,-0.225498,-0.195795,-0.058237,1.007447,1.253774,1.421436,0.87556,1.049248,1.18378,-0.45432,-0.539889,-0.419081,-0.333182,'\'(6.266667-10.533333]\''
'\'(14.9-27.8]\'',-0.10565,-0.211335,0.514594,0.081586,-0.275433,-0.429096,-0.23888,-0.18955,0.151089,1.258797,1.042549,1.096206,0.839279,0.939037,1.015058,-0.468454,-0.545698,-0.418154,-0.328145,'\'(6.266667-10.533333]\''
'\'(-inf-14.9]\'',-0.131735,-0.218906,0.533646,0.136295,-0.272687,-0.435456,-0.227142,-0.178997,0.088121,1.291761,1.076873,1.169645,0.663917,0.653785,0.698275,-0.48291,-0.549983,-0.415222,-0.323612,'\'(6.266667-10.533333]\''
'\'(-inf-14.9]\'',-0.186681,-0.218149,0.623305,0.15757,-0.266785,-0.423738,-0.223361,-0.175999,-0.082063,1.371423,1.282817,1.319146,0.485532,0.520884,0.532997,-0.480608,-0.546072,-0.414513,-0.317694,'\'(6.266667-10.533333]\''
'\'(-inf-14.9]\'',-0.14783,-0.222692,0.627788,0.158739,-0.262777,-0.462182,-0.218857,-0.16938,0.047277,1.354942,1.121758,1.111943,0.549025,0.673234,0.674172,-0.476726,-0.537108,-0.417349,-0.311241,'\'(6.266667-10.533333]\''
'\'(14.9-27.8]\'',-0.09899,-0.137896,0.667014,0.086262,-0.265712,-0.383606,-0.202845,-0.15202,0.006433,1.221712,1.103276,1.093583,0.573213,0.712132,0.705161,-0.484642,-0.536445,-0.41709,-0.311462,'\'(6.266667-10.533333]\''
'\'(14.9-27.8]\'',-0.127295,-0.188622,0.491058,0.046517,-0.255675,-0.412524,-0.195151,-0.150615,0.033662,1.162652,1.076873,0.9231,0.434133,0.524125,0.532997,-0.472022,-0.534306,-0.414172,-0.30057,'\'(6.266667-10.533333]\''
'\'(14.9-27.8]\'',-0.12341,-0.204521,0.322948,0.258805,-0.252045,-0.363507,-0.188411,-0.149959,0.081314,1.153038,0.934296,0.98867,0.331335,0.439847,0.488234,-0.475516,-0.527871,-0.414894,-0.296635,'\'(6.266667-10.533333]\''
'\'(14.9-27.8]\'',-0.1001,-0.170452,0.596408,0.203161,-0.241125,-0.379008,-0.18611,-0.142309,0.076208,1.106339,0.828683,0.673931,0.282959,0.478744,0.584646,-0.469923,-0.490534,-0.418931,-0.28546,'\'(6.266667-10.533333]\''
'\'(14.9-27.8]\'',-0.172251,-0.187865,0.548216,0.145881,-0.235223,-0.372176,-0.179929,-0.138531,-0.105888,1.121447,0.79964,0.658195,0.267842,0.449571,0.577759,-0.461219,-0.518692,-0.414649,-0.279322,'\'(6.266667-10.533333]\''
'\'(14.9-27.8]\'',-0.164481,-0.224963,0.582959,0.052128,-0.229321,-0.288839,-0.173287,-0.134847,0.001327,1.021182,0.71779,0.506071,0.29203,0.426881,0.51578,-0.453173,-0.521683,-0.415208,-0.27331,'\'(6.266667-10.533333]\''
'\'(14.9-27.8]\'',-0.187236,-0.23632,0.321827,0.028982,-0.222977,-0.322781,-0.164969,-0.135565,-0.04292,0.958001,1.401631,1.056864,0.313194,0.397707,0.467574,-0.433502,-0.4927,-0.421673,-0.268021,'\'(6.266667-10.533333]\''
'\'(-inf-14.9]\'',-0.183351,-0.243891,0.324068,-0.030169,-0.217643,-0.344152,-0.157571,-0.128259,-0.013989,1.085736,0.839244,0.902117,0.285983,0.387983,0.457244,-0.441522,-0.535983,-0.414335,-0.262544,'\'(6.266667-10.533333]\''
'\'(-inf-14.9]\'',-0.211656,-0.264332,0.342,-0.01544,-0.210036,-0.243978,-0.147576,-0.11961,-0.054833,0.993712,0.836604,0.928345,0.340405,0.436605,0.51578,-0.413905,-0.504723,-0.411512,-0.256973,'\'(6.266667-10.533333]\''
'\'(-inf-14.9]\'',-0.237741,-0.258276,0.317344,-0.087917,-0.202304,-0.172967,-0.142612,-0.114989,-0.148434,1.080242,0.876209,0.776222,0.36157,0.436605,0.51578,-0.411081,-0.500254,-0.406357,-0.249607,'\'(6.266667-10.533333]\''
'\'(-inf-14.9]\'',-0.226086,-0.290074,0.141388,-0.073889,-0.19173,-0.113733,-0.12992,-0.112928,-0.041218,0.772579,0.604257,0.482465,0.503673,0.689442,0.780914,-0.397336,-0.494824,-0.403316,-0.240163,'\'(6.266667-10.533333]\''
'\'(-inf-14.9]\'',-0.218871,-0.26509,-0.011032,-0.098438,-0.184503,-0.071745,-0.108878,-0.091946,-0.075255,0.982724,0.337585,0.519185,0.654847,0.913105,0.984069,-0.384108,-0.494944,-0.395678,-0.234466,'\'(6.266667-10.533333]\''
'\'(-inf-14.9]\'',-0.228306,-0.293102,0.070782,-0.139353,-0.179074,-0.033407,-0.115059,-0.103311,-0.041218,0.779447,0.395672,0.430009,0.594377,0.835309,0.911759,-0.372716,-0.485707,-0.390973,-0.229051,'\'(-inf-6.266667]\''
'\'(-inf-14.9]\'',-0.320437,-0.362756,0.040522,-0.15338,-0.168122,0.004251,-0.102302,-0.095256,-0.167154,0.848122,0.37983,0.380175,0.558096,0.832067,0.928976,-0.358212,-0.481239,-0.388968,-0.220174,'\'(-inf-6.266667]\''
'\'(-inf-14.9]\'',-0.344302,-0.315816,0.050608,-0.123688,-0.162662,0.095933,-0.088395,-0.082267,-0.345847,0.812411,0.366628,0.45886,0.663917,0.932554,1.035718,-0.342065,-0.4685,-0.388327,-0.216334,'\'(-inf-6.266667]\''
'\'(-inf-14.9]\'',-0.350962,-0.358213,-0.088363,-0.197802,-0.155497,0.127423,-0.093261,-0.091852,-0.270966,0.857736,0.374549,0.694914,0.85742,1.133526,1.262976,-0.333537,-0.477659,-0.385123,-0.211077,'\'(-inf-6.266667]\''
'\'(-inf-14.9]\'',-0.390923,-0.383198,0.058453,-0.243393,-0.14,0.11708,-0.080997,-0.076303,-0.337338,0.881085,0.197648,0.222806,0.833232,1.178907,1.297409,-0.304225,-0.479998,-0.373148,-0.198423,'\'(-inf-6.266667]\''
'\'(-inf-14.9]\'',-0.389258,-0.405911,-0.030085,-0.21183,-0.132614,0.198614,-0.073665,-0.075335,-0.281177,0.786314,0.224051,0.592624,0.642753,0.942278,1.070151,-0.293315,-0.477411,-0.366288,-0.19282,'\'(-inf-6.266667]\''
'\'(-inf-14.9]\'',-0.405908,-0.425596,-0.146642,-0.155718,-0.123493,0.136418,-0.064196,-0.069434,-0.287985,0.794555,-0.071664,-0.078819,0.706246,0.974693,1.114914,-0.281139,-0.468853,-0.357424,-0.185643,'\'(-inf-6.266667]\''
'\'(-inf-14.9]\'',-0.435323,-0.449066,0.046125,-0.076929,-0.120589,0.082821,-0.056864,-0.06194,-0.325425,0.668194,-0.338335,-0.417164,0.651823,0.887173,1.004728,-0.281716,-0.466508,-0.353482,-0.179473,'\'(-inf-6.266667]\''
'\'(-inf-14.9]\'',-0.422003,-0.434681,0.000175,-0.155718,-0.106039,0.119156,-0.049927,-0.056102,-0.316916,0.628362,0.173885,0.112647,0.546002,0.734823,0.846337,-0.270494,-0.461803,-0.345886,-0.168141,'\'(-inf-6.266667]\''
'\'(-inf-14.9]\'',-0.418673,-0.464965,-0.025602,-0.217675,-0.097359,0.183961,-0.056174,-0.063689,-0.238631,0.60776,0.403593,0.267394,0.567166,0.773721,0.901429,-0.265572,-0.449721,-0.340185,-0.161216,'\'(-inf-6.266667]\''
'\'(-inf-14.9]\'',-0.519129,-0.493735,-0.201558,-0.186346,-0.08969,0.259049,-0.036019,-0.053135,-0.481994,0.697037,0.150123,0.374929,0.65787,0.890414,1.021945,-0.252145,-0.452944,-0.334689,-0.155329,'\'(-inf-6.266667]\''
'\'(-inf-14.9]\'',-0.472508,-0.466479,-0.082759,-0.179098,-0.082431,0.243633,-0.04779,-0.058756,-0.400306,0.680555,0.189727,-0.02374,0.775786,1.016833,1.149347,-0.256723,-0.446614,-0.329016,-0.148593,'\'(-inf-6.266667]\''
'\'(-inf-14.9]\'',-0.536889,-0.49752,-0.208282,-0.204816,-0.070942,0.262633,-0.026912,-0.046204,-0.527943,0.688796,0.29798,0.125761,0.802997,0.987659,1.090811,-0.250165,-0.443176,-0.318528,-0.138866,'\'(-inf-6.266667]\''
'\'(-inf-14.9]\'',-0.498039,-0.504334,-0.048017,-0.142392,-0.063872,0.283302,-0.022539,-0.040209,-0.393498,0.547326,0.176526,0.09691,0.881607,1.042765,1.139017,-0.249813,-0.441136,-0.313796,-0.132287,'\'(-inf-6.266667]\''
'\'(-inf-14.9]\'',-0.476948,-0.505091,-0.153366,-0.174422,-0.059958,0.214933,-0.01524,-0.025846,-0.327127,0.786314,0.231972,0.165104,1.008593,1.133526,1.207883,-0.238484,-0.436988,-0.303703,-0.127124,'\'(-inf-6.266667]\''
'\'(-inf-14.9]\'',-0.515799,-0.491464,-0.257595,-0.222351,-0.049259,0.196328,-0.012807,-0.030998,-0.476888,0.758844,0.168605,0.162481,0.984406,1.052489,1.11147,-0.245835,-0.439359,-0.296571,-0.116957,'\'(-inf-6.266667]\''
'\'(-inf-14.9]\'',-0.519684,-0.525533,-0.275526,-0.283606,-0.040958,0.324503,-0.003535,-0.023317,-0.412219,0.695664,0.37983,0.241165,0.990453,0.994142,1.049491,-0.235831,-0.424113,-0.296107,-0.110095,'\'(-inf-6.266667]\''
'\'(-inf-14.9]\'',-0.571854,-0.574745,-0.16009,-0.287814,-0.030195,0.267412,0.011655,-0.00986,-0.461572,0.683302,0.358707,0.364438,1.102321,1.084904,1.104584,-0.230053,-0.417952,-0.291115,-0.100714,'\'(-inf-6.266667]\''
'\'(-inf-14.9]\'',-0.559644,-0.547489,-0.097329,-0.275189,-0.021326,0.320683,0.011786,-0.010328,-0.485398,0.511615,0.340225,0.348701,1.256518,1.182149,1.156233,-0.219683,-0.412615,-0.279182,-0.092624,'\'(-inf-6.266667]\''
'\'(-inf-14.9]\'',-0.565194,-0.552789,-0.111899,-0.291321,-0.013025,0.205676,0.031645,0.013651,-0.490503,0.750603,0.247814,0.500825,1.274659,1.201598,1.149347,-0.212925,-0.407121,-0.269622,-0.085699,'\'(-inf-6.266667]\''
'\'(-inf-14.9]\'',-0.662875,-0.626228,-0.260957,-0.225858,-0.00463,0.308808,0.03388,0.005689,-0.624948,0.816531,0.028668,-0.013249,1.335129,1.240496,1.176893,-0.223144,-0.417242,-0.261412,-0.076791,'\'(-inf-6.266667]\''
'\'(-inf-14.9]\'',-0.63568,-0.599729,-0.291217,-0.140522,0.001493,0.305806,0.041969,0.008562,-0.601122,0.60776,-0.417545,-0.021117,1.43188,1.318292,1.242316,-0.217252,-0.412968,-0.25522,-0.070338,'\'(-inf-6.266667]\''
'\'(-inf-14.9]\'',-0.61126,-0.564146,-0.141038,-0.188216,0.006859,0.326711,0.044434,0.019115,-0.606228,0.701158,0.010186,-0.238811,1.368387,1.25022,1.180336,-0.218062,-0.398936,-0.246383,-0.065962,'\'(-inf-6.266667]\''
'\'(-inf-14.9]\'',-0.638455,-0.626985,-0.137676,-0.128832,0.010709,0.260746,0.0445,0.016274,-0.548365,0.621495,0.023388,-0.259794,1.253495,1.123802,1.070151,-0.230712,-0.393836,-0.236945,-0.061775,'\'(-inf-6.266667]\''
'\'(-inf-14.9]\'',-0.665095,-0.642884,-0.100691,-0.089086,0.014307,0.108035,0.054988,0.032541,-0.594315,0.966242,-0.132391,-0.086688,1.090227,0.922829,0.87044,-0.230764,-0.393605,-0.228312,-0.057022,'\'(-inf-6.266667]\''
'\'(-inf-14.9]\'',-0.590169,-0.636828,-0.166815,-0.048873,0.015633,0.171682,0.056764,0.031667,-0.378182,0.787688,-0.235363,-0.008003,0.923936,0.773721,0.780914,-0.252826,-0.389757,-0.222134,-0.054913,'\'(-inf-6.266667]\''
'\'(-inf-14.9]\'',-0.663985,-0.683011,-0.080518,-0.082072,0.017243,0.150454,0.062781,0.037881,-0.500714,0.673688,-0.100707,-0.257171,1.011617,0.857999,0.811904,-0.230801,-0.377654,-0.219638,-0.053969,'\'(-inf-6.266667]\''
'\'(-inf-14.9]\'',-0.631795,-0.653484,-0.1444,-0.075058,0.025102,0.112881,0.052884,0.030949,-0.468379,0.844001,-0.153513,-0.396181,1.023711,0.883931,0.83945,-0.238399,-0.378422,-0.220975,-0.04462,'\'(-inf-6.266667]\''
'\'(-inf-14.9]\'',-0.614035,-0.6179,-0.132072,0.052361,0.028479,0.152035,0.060348,0.039286,-0.493907,0.849495,-0.018857,-0.052591,0.954171,0.819101,0.777471,-0.241286,-0.387096,-0.216761,-0.041157,'\'(-inf-6.266667]\''
'\'(-inf-14.9]\'',-0.599605,-0.611086,-0.08388,-0.071551,0.03719,0.046194,0.07123,0.052587,-0.464976,0.889326,-0.074304,-0.207338,0.887654,0.767238,0.729265,-0.233636,-0.380309,-0.211374,-0.032847,'\'(-inf-6.266667]\''
'\'(-inf-14.9]\'',-0.62347,-0.626228,-0.137676,0.01472,0.039841,0.126587,0.068534,0.048215,-0.504118,0.927784,0.13164,-0.46962,0.872537,0.747789,0.718935,-0.220657,-0.378285,-0.213392,-0.028314,'\'(-inf-6.266667]\''
'\'(-inf-14.9]\'',-0.602935,-0.6179,-0.021119,0.041841,0.051203,0.075442,0.109665,0.08993,-0.45987,0.809664,0.992383,0.317227,0.933007,0.867724,0.846337,-0.232633,-0.353692,-0.211033,-0.017989,'\'(-inf-6.266667]\''
'\'(-inf-14.9]\'',-0.637345,-0.634556,-0.049137,0.028982,0.058778,0.01854,0.108942,0.086089,-0.527943,0.856363,-0.113909,0.018225,0.990453,0.964969,0.935862,-0.211911,-0.359958,-0.210119,-0.013204,'\'(-inf-6.266667]\''
'\'(-inf-14.9]\'',-0.64789,-0.624714,-0.009912,-0.032039,0.065217,0.026128,0.113677,0.088931,-0.582402,0.833013,-0.333055,-0.369953,1.063016,1.023316,0.977182,-0.200938,-0.356883,-0.207678,-0.005272,'\'(-inf-6.266667]\''
'\'(-inf-14.9]\'',-0.622915,-0.615629,0.06854,0.045348,0.06629,-0.06112,0.102136,0.084185,-0.526242,0.919543,-0.623489,-0.477488,1.078133,1.078421,1.046048,-0.206138,-0.362776,-0.203368,-0.00247,'\'(-inf-6.266667]\''
'\'(-inf-14.9]\'',-0.60127,-0.619414,0.178372,0.014954,0.071151,-0.089188,0.111967,0.091803,-0.451361,0.710772,-0.805671,-0.57191,1.053945,1.068697,1.035718,-0.19932,-0.36439,-0.195772,0.004864,'\'(-inf-6.266667]\''
'\'(-inf-14.9]\'',-0.589614,-0.622443,0.009141,0.048387,0.071845,-0.070939,0.106443,0.081812,-0.408815,0.757471,-0.697418,-0.663709,0.987429,0.96821,0.939306,-0.191452,-0.357319,-0.197463,0.006753,'\'(-inf-6.266667]\''
'\'(-inf-14.9]\'',-0.535224,-0.586102,0.145871,0.069896,0.07074,-0.156856,0.100755,0.086776,-0.323723,0.853616,-0.776627,-0.679446,0.939053,0.935795,0.935862,-0.195316,-0.354564,-0.190317,0.008893,'\'(-inf-6.266667]\''
'\'(-inf-14.9]\'',-0.494709,-0.554303,0.161561,0.150557,0.064144,-0.288755,0.100492,0.094832,-0.270966,0.989592,-0.80039,-0.826324,0.890678,0.971452,1.032275,-0.186918,-0.350574,-0.18403,0.005368,'\'(-inf-6.266667]\''
'\'(-inf-14.9]\'',-0.445868,-0.515691,0.29605,0.196147,0.061524,-0.389741,0.091352,0.091772,-0.207998,0.934652,-1.045939,-0.839438,0.884631,0.994142,1.080481,-0.186419,-0.347888,-0.179352,0.005179,'\'(-inf-6.266667]\''
'\'(-inf-14.9]\'',-0.449198,-0.517962,0.343121,0.342271,0.056916,-0.483302,0.091747,0.094988,-0.213104,1.026676,-1.180595,-1.091229,0.821138,0.935795,1.021945,-0.200727,-0.344907,-0.176583,0.003668,'\'(-inf-6.266667]\''
'\'(-inf-14.9]\'',-0.370387,-0.476322,0.398037,0.442804,0.052024,-0.63668,0.084185,0.09733,-0.065044,1.157158,-1.13835,-0.747639,0.748575,0.835309,0.908316,-0.229587,-0.347183,-0.173719,0.00477,'\'(-inf-6.266667]\''
'\'(-inf-14.9]\'',-0.385373,-0.477836,0.510111,0.48138,0.05032,-0.658106,0.082047,0.099578,-0.10759,1.184628,-1.349575,-1.209257,0.669964,0.741306,0.801574,-0.245465,-0.353949,-0.17912,0.005651,'\'(6.266667-10.533333]\''
'\'(-inf-14.9]\'',-0.350962,-0.449823,0.582959,0.410072,0.046848,-0.764267,0.072151,0.093739,-0.065044,1.195616,-1.547599,-1.65776,0.546002,0.731581,0.805017,-0.253026,-0.372029,-0.172274,0.006627,'\'(6.266667-10.533333]\''
'\'(-inf-14.9]\'',-0.301567,-0.422567,0.693912,0.616983,0.036653,-0.836768,0.066069,0.095769,0.025153,1.353568,-1.370698,-1.219748,0.434133,0.657027,0.722378,-0.269514,-0.35908,-0.17511,0.001496,'\'(6.266667-10.533333]\''
'\'(-inf-14.9]\'',-0.200556,-0.386983,0.91918,0.685252,0.031382,-0.897424,0.062682,0.102575,0.254901,1.290387,-1.21756,-1.335152,0.473438,0.754272,0.811904,-0.282149,-0.354522,-0.186512,0.000142,'\'(6.266667-10.533333]\''
'\'(-inf-14.9]\'',-0.162261,-0.365784,0.774605,0.538661,0.024502,-0.884533,0.077708,0.112255,0.324676,1.099471,-1.204358,-1.125326,0.425063,0.731581,0.787801,-0.276409,-0.346305,-0.189512,-0.003887,'\'(6.266667-10.533333]\''
'\'(-inf-14.9]\'',-0.13673,-0.316573,0.845211,0.443973,0.02144,-0.92256,0.055712,0.100639,0.292341,1.403014,-1.006335,-1.13844,0.391805,0.731581,0.79813,-0.253969,-0.346016,-0.19509,-0.0048,'\'(6.266667-10.533333]\''
'\'(-inf-14.9]\'',0.019226,-0.267361,0.84297,0.357935,0.023871,-0.901792,0.062255,0.105479,0.659938,1.137929,-1.077623,-1.033527,0.461344,0.809377,0.87044,-0.235735,-0.34425,-0.198527,-0.000928,'\'(6.266667-10.533333]\''
'\'(-inf-14.9]\'',-0.06125,-0.268118,0.776846,0.309539,0.022608,-0.927609,0.05992,0.099953,0.414873,1.129688,-1.05386,-0.962711,0.446227,0.799652,0.866996,-0.229491,-0.341558,-0.199904,-0.000141,'\'(6.266667-10.533333]\''
'\'(-inf-14.9]\'',-0.021289,-0.222692,0.719689,0.371963,0.022892,-0.951508,0.057158,0.099828,0.435296,1.162652,-1.130429,-0.999431,0.285983,0.644061,0.739594,-0.229165,-0.346121,-0.200463,0.000583,'\'(6.266667-10.533333]\''
'\'(-inf-14.9]\'',-0.000754,-0.205278,0.699515,0.338764,0.024028,-0.946342,0.071756,0.115439,0.459121,1.206604,-1.05122,-1.088607,0.22249,0.550057,0.653512,-0.210364,-0.345343,-0.196222,0.002566,'\'(6.266667-10.533333]\''
'\'(-inf-14.9]\'',0.077502,-0.171966,0.749949,0.330581,0.024849,-1.002627,0.067548,0.11519,0.624199,1.199736,-1.006335,-0.920746,0.149927,0.462537,0.612192,-0.212773,-0.350632,-0.19434,0.004896,'\'(6.266667-10.533333]\''
'\'(-inf-14.9]\'',0.121902,-0.065214,0.75219,0.436491,0.022924,-0.997048,0.066562,0.117032,0.520387,1.181881,-1.024817,-0.857798,0.016894,0.3815,0.574316,-0.215823,-0.346374,-0.193399,0.006218,'\'(6.266667-10.533333]\''
'\'(14.9-27.8]\'',0.218473,0.031695,0.788054,0.489563,0.023871,-1.017041,0.056567,0.115876,0.598672,1.199736,-0.821513,-0.920746,-0.137304,0.242115,0.460687,-0.226312,-0.347057,-0.187275,0.008484,'\'(6.266667-10.533333]\''
'\'(14.9-27.8]\'',0.311714,0.121791,0.802623,0.406565,0.024975,-1.069179,0.0734,0.134517,0.682062,1.096724,-0.779268,-0.666332,-0.206843,0.258323,0.440028,-0.238292,-0.331511,-0.193944,0.011506,'\'(6.266667-10.533333]\''
'\'(14.9-27.8]\'',0.379424,0.183116,0.944957,0.421528,0.023334,-1.05121,0.066003,0.132831,0.751837,0.930531,-0.597086,-0.472243,-0.164515,0.368534,0.54677,-0.222122,-0.331448,-0.191845,0.012136,'\'(6.266667-10.533333]\''
'\'(14.9-27.8]\'',0.387194,0.233842,0.774605,0.362143,0.025038,-1.008663,0.078858,0.145226,0.66164,1.115953,-0.766066,-0.34897,-0.061717,0.488469,0.615636,-0.202836,-0.334281,-0.1864,0.014308,'\'(6.266667-10.533333]\''
'\'(14.9-27.8]\'',0.350564,0.217943,0.79702,0.309539,0.029773,-1.036499,0.08813,0.152626,0.585057,0.956628,-0.839995,-0.868289,-0.161491,0.433364,0.594976,-0.185086,-0.327623,-0.182937,0.018872,'\'(6.266667-10.533333]\''
'\'(14.9-27.8]\'',0.524836,0.395105,0.760035,0.305564,0.033876,-1.038065,0.086453,0.161306,0.721204,1.122821,-0.834714,-0.566665,-0.19475,0.40419,0.563986,-0.177429,-0.324749,-0.183689,0.022838,'\'(6.266667-10.533333]\''
'\'(14.9-27.8]\'',0.699107,0.520784,0.783571,0.311877,0.03577,-1.074357,0.0879,0.171922,0.973076,1.261544,-0.832074,-0.747639,-0.200797,0.336119,0.519223,-0.176111,-0.320913,-0.176078,0.025892,'\'(6.266667-10.533333]\''
'\'(14.9-27.8]\'',0.619187,0.5011,0.809348,0.4241,0.038452,-1.064054,0.097566,0.17517,0.772259,1.151664,-0.747584,-0.763376,-0.373135,0.128663,0.374605,-0.154927,-0.312291,-0.171138,0.029291,'\'(6.266667-10.533333]\''
'\'(14.9-27.8]\'',0.599761,0.462487,0.818314,0.25787,0.042366,-1.038345,0.101281,0.176731,0.799488,1.148917,-0.784548,-0.535191,-0.41244,0.050867,0.288522,-0.16805,-0.314606,-0.167992,0.03417,'\'(6.266667-10.533333]\''
'\'(14.9-27.8]\'',0.558136,0.491257,0.865385,0.303694,0.043502,-1.064902,0.097796,0.173234,0.607181,1.137929,-0.681576,-0.640104,-0.500121,-0.020446,0.229986,-0.16053,-0.304421,-0.166918,0.036091,'\'(6.266667-10.533333]\''
'\'(14.9-27.8]\'',0.558691,0.554097,0.582959,0.120397,0.049373,-1.013221,0.094771,0.158403,0.46763,1.039037,-0.634051,-0.48798,-0.463839,0.050867,0.288522,-0.144453,-0.295527,-0.166377,0.041631,'\'(6.266667-10.533333]\''
'\'(14.9-27.8]\'',0.49875,0.401162,0.911335,0.047686,0.053949,-0.999127,0.102925,0.17136,0.627603,0.985471,-0.671015,-0.566665,-0.348947,0.193493,0.384935,-0.135385,-0.295208,-0.163061,0.045817,'\'(6.266667-10.533333]\''
'\'(14.9-27.8]\'',0.639722,0.449617,0.727534,-0.06103,0.060861,-0.997447,0.106904,0.174889,0.950952,0.809664,-0.517877,-0.532568,-0.339876,0.206459,0.350502,-0.131792,-0.287019,-0.15526,0.051609,'\'(6.266667-10.533333]\''
'\'(14.9-27.8]\'',0.470445,0.381477,0.604253,-0.030169,0.069951,-0.99648,0.109468,0.17008,0.585057,0.960748,-0.515236,-0.577156,-0.403369,0.125422,0.291966,-0.122406,-0.277566,-0.154368,0.058944,'\'(6.266667-10.533333]\''
'\'(14.9-27.8]\'',0.383864,0.336808,0.526922,-0.064537,0.078094,-0.946764,0.116044,0.171891,0.419979,1.183255,-0.591806,-0.577156,-0.436628,-0.004238,0.174894,-0.110833,-0.281015,-0.15166,0.065271,'\'(6.266667-10.533333]\''
'\'(14.9-27.8]\'',0.342239,0.260341,0.623305,-0.004919,0.076706,-0.939295,0.124822,0.176262,0.464227,0.907182,-0.834714,-0.910255,-0.454768,-0.082034,0.078481,-0.113183,-0.287067,-0.142363,0.065334,'\'(6.266667-10.533333]\''
'\'(14.9-27.8]\'',0.286183,0.129362,0.571751,0.012616,0.086048,-0.945078,0.122587,0.175825,0.586759,1.030797,-0.707979,-0.45126,-0.48198,-0.101483,0.075038,-0.106536,-0.263969,-0.140055,0.074998,'\'(6.266667-10.533333]\''
'\'(14.9-27.8]\'',0.334469,0.237627,0.568389,-0.039521,0.094601,-0.908792,0.143662,0.197057,0.491456,1.048652,-0.686857,-0.446015,-0.445698,-0.078793,0.099141,-0.115481,-0.259485,-0.138913,0.081671,'\'(6.266667-10.533333]\''
'\'(14.9-27.8]\'',0.356669,0.245199,0.748828,-0.043496,0.099999,-0.93316,0.149416,0.201647,0.542511,0.849495,-0.639331,-0.393558,-0.391275,-0.07231,0.071595,-0.110041,-0.259182,-0.136418,0.087809,'\'(6.266667-10.533333]\''
'\'(14.9-27.8]\'',0.303944,0.233085,0.533646,-0.005854,0.109846,-0.875966,0.155235,0.20121,0.408066,0.951134,-0.523157,-0.461752,-0.41244,-0.114449,0.019945,-0.103875,-0.244529,-0.136538,0.097064,'\'(6.266667-10.533333]\''
'\'(14.9-27.8]\'',0.292844,0.233085,0.543733,-0.051678,0.114454,-0.831908,0.168025,0.208141,0.374029,0.791808,-0.3753,-0.341102,-0.42151,-0.133898,-0.024818,-0.106543,-0.247607,-0.133939,0.101093,'\'(6.266667-10.533333]\''
'\'(14.9-27.8]\'',0.301724,0.222485,0.455195,-0.06103,0.122313,-0.851217,0.158096,0.197182,0.425084,0.724507,-0.319853,-0.22832,-0.445698,-0.231143,-0.135003,-0.094226,-0.240422,-0.128934,0.107326,'\'(6.266667-10.533333]\''
'\'(14.9-27.8]\'',0.294509,0.262612,0.452953,-0.01053,0.131308,-0.801015,0.16694,0.206705,0.312763,1.011568,-0.224802,-0.099802,-0.436628,-0.237626,-0.145333,-0.076162,-0.235301,-0.127349,0.11466,'\'(6.266667-10.533333]\''
'\'(14.9-27.8]\'',0.270643,0.255798,0.457436,-0.051678,0.139325,-0.76503,0.178316,0.211014,0.254901,0.669567,-0.03998,-0.141767,-0.379182,-0.124174,-0.011044,-0.064814,-0.223961,-0.122514,0.121365,'\'(6.266667-10.533333]\''
'\'(14.9-27.8]\'',0.260653,0.24217,0.282601,-0.135846,0.14993,-0.723578,0.188015,0.218195,0.254901,0.887953,0.234613,0.270017,-0.370111,-0.095,0.006172,-0.050621,-0.217068,-0.117524,0.129833,'\'(6.266667-10.533333]\''
'\'(14.9-27.8]\'',0.311714,0.205072,0.307257,0.033424,0.158673,-0.70286,0.20452,0.238647,0.49486,0.802796,0.04715,-0.414541,-0.391275,-0.114449,-0.000714,-0.042997,-0.224708,-0.116826,0.136916,'\'(6.266667-10.533333]\''
'\'(14.9-27.8]\'',0.343904,0.224757,0.677101,-0.016609,0.164385,-0.644991,0.208465,0.240926,0.549318,0.072097,-0.272328,-0.244057,-0.291501,-0.013963,0.075038,-0.041413,-0.206491,-0.110327,0.143054,'\'(6.266667-10.533333]\''
'\'(14.9-27.8]\'',0.308939,0.240656,0.485455,-0.076227,0.178999,-0.610516,0.203336,0.232527,0.406364,0.260265,-0.079585,0.351324,-0.155444,0.161078,0.250646,-0.016672,-0.187574,-0.109311,0.154512,'\'(6.266667-10.533333]\''
'\'(14.9-27.8]\'',0.234568,0.214914,0.358811,-0.037651,0.189856,-0.588752,0.215173,0.239427,0.236181,0.333061,0.052431,0.091664,-0.004271,0.349085,0.419368,-0.001856,-0.189131,-0.104299,0.162476,'\'(6.266667-10.533333]\''
'\'(14.9-27.8]\'',0.187393,0.177059,0.394675,0.032489,0.200366,-0.463501,0.234045,0.24436,0.176616,0.072097,0.062992,0.251657,0.14388,0.433364,0.491677,0.00985,-0.193349,-0.089119,0.171007,'\'(-inf-6.266667]\''
'\'(14.9-27.8]\'',0.131337,0.089235,0.380105,-0.056354,0.210371,-0.5028,0.226483,0.237554,0.202144,0.216314,-0.03998,-0.055214,0.131786,0.407432,0.464131,0.0268,-0.181936,-0.081644,0.179065,'\'(-inf-6.266667]\''
'\'(14.9-27.8]\'',0.179623,0.075607,0.231047,-0.046067,0.222018,-0.431784,0.22885,0.240395,0.380837,0.302844,-0.098067,0.023471,0.195279,0.475503,0.532997,0.030009,-0.180566,-0.072483,0.189327,'\'(-inf-6.266667]\''
'\'(14.9-27.8]\'',0.139662,0.080907,0.514594,-0.073889,0.231329,-0.485515,0.249761,0.259847,0.246392,0.098193,0.012826,0.052322,0.219466,0.465778,0.512337,0.046904,-0.16641,-0.062564,0.196441,'\'(-inf-6.266667]\''
'\'(14.9-27.8]\'',0.137442,0.061222,0.232168,-0.101945,0.242186,-0.429911,0.261104,0.264406,0.283832,0.098193,0.105237,0.11527,0.279936,0.530608,0.588089,0.054503,-0.156931,-0.055324,0.205035,'\'(-inf-6.266667]\''
'\'(14.9-27.8]\'',0.253438,0.097563,0.194063,-0.087216,0.248814,-0.313536,0.275077,0.274491,0.557828,-0.241061,0.065633,0.052322,0.385758,0.634336,0.684502,0.07538,-0.149986,-0.046073,0.210795,'\'(-inf-6.266667]\''
'\'(14.9-27.8]\'',0.093042,0.005954,0.060695,-0.112466,0.261786,-0.27787,0.28836,0.279081,0.271919,0.026771,-0.084865,0.212314,0.515767,0.738064,0.760254,0.092819,-0.147315,-0.038071,0.221372,'\'(-inf-6.266667]\''
'\'(14.9-27.8]\'',-0.005749,-0.072028,0.040522,-0.13491,0.271412,-0.183415,0.2951,0.280954,0.144282,-0.025422,0.062992,0.065436,0.697175,0.757513,0.708605,0.118671,-0.144629,-0.027942,0.229493,'\'(-inf-6.266667]\''
'\'(14.9-27.8]\'',-0.05681,-0.09247,0.060695,-0.086748,0.281891,-0.27787,0.293193,0.283671,0.033662,0.225928,-0.238003,-0.060459,0.669964,0.75103,0.698275,0.123711,-0.139566,-0.015085,0.238339,'\'(-inf-6.266667]\''
'\'(14.9-27.8]\'',-0.085115,-0.17878,0.097679,-0.066875,0.287856,-0.231806,0.301906,0.286075,0.140878,-0.029542,-0.311932,-0.299136,0.564143,0.624612,0.591533,0.120466,-0.154407,-0.004991,0.24561,'\'(-inf-6.266667]\''
'\'(14.9-27.8]\'',-0.117305,-0.093984,0.186218,-0.055185,0.294611,-0.261665,0.302794,0.285856,-0.148434,-0.037783,-0.385861,-0.474866,0.482509,0.520884,0.498564,0.124307,-0.143375,0.00645,0.250899,'\'(-inf-6.266667]\''
'\'(14.9-27.8]\'',-0.014074,-0.037201,0.291567,-0.00866,0.299566,-0.345206,0.302465,0.300906,0.04047,0.179229,-0.298731,-0.427655,0.434133,0.459296,0.450357,0.119651,-0.142691,0.01882,0.255117,'\'(-inf-6.266667]\''
'\'(14.9-27.8]\'',0.043646,-0.11064,0.248979,0.085093,0.298998,-0.415791,0.285237,0.277832,0.382539,0.004795,-0.267047,-0.304382,0.352499,0.313428,0.302296,0.132453,-0.12832,0.026733,0.256281,'\'(-inf-6.266667]\''
'\'(14.9-27.8]\'',-0.12896,-0.171966,0.273635,0.066389,0.306699,-0.392053,0.288558,0.280892,-0.008884,0.198458,-0.177276,-0.390935,0.243654,0.157836,0.143904,0.141077,-0.11618,0.031497,0.263396,'\'(-inf-6.266667]\''
'\'(14.9-27.8]\'',-0.103985,-0.160609,0.510111,0.090471,0.309571,-0.329496,0.298224,0.293194,0.042171,0.037759,-0.047901,0.081173,0.228537,0.183768,0.18178,0.129999,-0.122833,0.037687,0.266827,'\'(-inf-6.266667]\''
'\'(14.9-27.8]\'',-0.059585,-0.171966,0.363294,0.01963,0.317903,-0.336729,0.299407,0.292975,0.203846,0.181976,0.036589,-0.036854,0.276912,0.258323,0.25409,0.164748,-0.112549,0.041089,0.27372,'\'(-inf-6.266667]\''
'\'(14.9-27.8]\'',-0.10676,-0.152281,0.208632,0.046517,0.325068,-0.331957,0.308646,0.301562,0.014942,0.353663,0.129,-0.160127,0.237607,0.180527,0.154234,0.175185,-0.111195,0.046965,0.279481,'\'(-inf-6.266667]\''
'\'(14.9-27.8]\'',-0.12563,-0.183322,0.302774,0.090938,0.329897,-0.27492,0.31703,0.30484,0.026855,0.172362,0.073554,-0.160127,0.228537,0.135146,0.099141,0.170718,-0.115062,0.053389,0.28436,'\'(-inf-6.266667]\''
'\'(14.9-27.8]\'',-0.088445,-0.157581,0.272514,0.116656,0.334284,-0.353421,0.310455,0.301655,0.083016,0.291856,0.152763,0.057568,0.180161,0.080041,0.061265,0.177506,-0.099657,0.056063,0.288924,'\'(-inf-6.266667]\''
'\'(14.9-27.8]\'',-0.092885,-0.187865,0.340879,0.060544,0.339334,-0.205683,0.307167,0.298439,0.137474,0.085831,0.184447,0.002488,0.14388,0.021694,-0.014488,0.18664,-0.097112,0.056051,0.293646,'\'(-inf-6.266667]\''
'\'(14.9-27.8]\'',-0.070685,-0.19165,0.310619,0.102628,0.339082,-0.318378,0.308383,0.301718,0.214057,0.172362,0.039229,0.09691,0.077363,-0.026929,-0.035147,0.17211,-0.098361,0.062221,0.293835,'\'(-inf-6.266667]\''
'\'(14.9-27.8]\'',-0.106205,-0.197707,0.17501,0.117825,0.352338,-0.316948,0.325283,0.312209,0.118754,0.15588,0.12636,0.159858,0.032011,-0.020446,0.019945,0.210952,-0.082255,0.062555,0.30438,'\'(-inf-6.266667]\''
'\'(14.9-27.8]\'',-0.024619,-0.100041,0.167165,0.16061,0.360386,-0.272279,0.332615,0.319328,0.149387,-0.007566,0.171245,-0.015871,0.15295,0.170802,0.178337,0.207006,-0.078205,0.061412,0.312565,'\'(-inf-6.266667]\''
'\'(14.9-27.8]\'',-0.024064,-0.08717,0.278118,0.033658,0.365625,-0.330684,0.336955,0.326478,0.122158,-0.09547,0.239893,0.225428,0.21342,0.277772,0.260976,0.234209,-0.069614,0.064347,0.316531,'\'(-inf-6.266667]\''
'\'(14.9-27.8]\'',-0.052925,-0.078085,0.268031,-0.035313,0.376293,-0.390056,0.345174,0.334533,0.01324,0.227302,0.224051,0.193955,0.243654,0.336119,0.340172,0.255123,-0.059879,0.065562,0.325849,'\'(-inf-6.266667]\''
'\'(14.9-27.8]\'',-0.079565,-0.069757,0.058453,-0.046067,0.384941,-0.163605,0.356945,0.33547,-0.087168,-0.065253,0.150123,0.09691,0.295053,0.40419,0.398708,0.27579,-0.068674,0.066757,0.333183,'\'(-inf-6.266667]\''
'\'(14.9-27.8]\'',-0.111755,-0.095498,0.248979,-0.070382,0.3928,-0.321779,0.368288,0.353798,-0.128012,0.099566,0.205569,0.110024,0.307147,0.387983,0.384935,0.275834,-0.061603,0.072051,0.340454,'\'(-inf-6.266667]\''
'\'(14.9-27.8]\'',-0.128405,-0.149253,0.086472,-0.094697,0.39845,-0.211376,0.375686,0.346617,-0.058237,-0.142169,0.107878,0.332964,0.252725,0.306945,0.305739,0.289968,-0.061504,0.075299,0.344137,'\'(-inf-6.266667]\''
'\'(14.9-27.8]\'',-0.154491,-0.187865,0.116732,-0.043496,0.404826,-0.141172,0.387653,0.361011,-0.051429,-0.102337,0.052431,0.117893,0.3011,0.375017,0.371162,0.30753,-0.04903,0.076667,0.349961,'\'(-inf-6.266667]\''
'\'(14.9-27.8]\'',-0.12785,-0.210578,0.25122,-0.06103,0.41319,-0.237537,0.399292,0.373687,0.081314,-0.168265,-0.03734,-0.099802,0.216443,0.268047,0.267863,0.306993,-0.037048,0.08077,0.356729,'\'(-inf-6.266667]\''
'\'(14.9-27.8]\'',-0.188346,-0.239348,0.108887,-0.073188,0.42209,-0.150644,0.39538,0.376373,-0.039517,0.440193,0.105237,0.154612,0.177138,0.170802,0.154234,0.332219,-0.038924,0.081189,0.364409,'\'(-inf-6.266667]\''
'\'(14.9-27.8]\'',-0.207771,-0.233291,0.344242,0.006771,0.428276,-0.170839,0.398306,0.379682,-0.112696,0.029518,0.102597,-0.157504,0.192255,0.203217,0.188667,0.34998,-0.036191,0.081757,0.370107,'\'(-inf-6.266667]\''
'\'(14.9-27.8]\'',-0.186681,-0.23632,0.122336,-0.06103,0.435031,-0.164371,0.412707,0.390392,-0.041218,0.217687,0.026028,-0.196846,0.234584,0.287496,0.285079,0.355025,-0.023471,0.085007,0.376245,'\'(-inf-6.266667]\''
'\'(14.9-27.8]\'',-0.198891,-0.267361,0.276997,-0.146367,0.445036,-0.077997,0.412707,0.388643,-0.008884,-0.069374,0.192368,0.146744,0.210396,0.245357,0.229986,0.388778,-0.015826,0.089029,0.384146,'\'(-inf-6.266667]\''
'\'(14.9-27.8]\'',-0.215541,-0.275689,0.238892,-0.152679,0.455041,-0.067869,0.432204,0.403974,-0.041218,0.003422,0.168605,0.070682,0.29203,0.355568,0.322955,0.407068,-0.007454,0.090243,0.392394,'\'(-inf-6.266667]\''
'\'(14.9-27.8]\'',-0.178911,-0.270389,0.089834,-0.117142,0.464415,-0.050689,0.440489,0.407877,0.05919,-0.220458,0.129,0.162481,0.349476,0.426881,0.391821,0.409478,-0.024511,0.095453,0.400861,'\'(-inf-6.266667]\''
'\'(14.9-27.8]\'',-0.209436,-0.311273,-0.054741,-0.132105,0.473,-0.102513,0.451043,0.411093,0.057488,-0.09959,0.110518,0.031339,0.313194,0.365292,0.329842,0.42594,-0.025316,0.10098,0.408038,'\'(-inf-6.266667]\''
'\'(14.9-27.8]\'',-0.229416,-0.292345,0.073023,-0.124156,0.48108,0.029989,0.449334,0.413966,-0.046324,-0.051518,0.078834,0.167726,0.258772,0.303704,0.25409,0.439541,-0.01245,0.110288,0.415373,'\'(-inf-6.266667]\''
'\'(14.9-27.8]\'',-0.210546,-0.290831,-0.017757,-0.148705,0.490485,0.006877,0.462814,0.422271,0.008135,-0.271277,0.179166,0.018225,0.21342,0.219425,0.16112,0.464319,0.001931,0.112344,0.423904,'\'(-inf-6.266667]\''
'\'(14.9-27.8]\'',-0.274372,-0.293102,0.011382,-0.102179,0.489601,0.051832,0.468995,0.426673,-0.182471,-0.102337,0.202929,-0.105047,0.219466,0.232391,0.188667,0.494516,0.002637,0.115434,0.420126,'\'(-inf-6.266667]\''
'\'(14.9-27.8]\'',-0.235521,-0.293859,-0.008791,-0.172084,0.505035,0.14265,0.469291,0.428453,-0.06164,-0.172386,0.321743,0.304113,0.207373,0.216183,0.157677,0.522281,0.009895,0.123598,0.434165,'\'(-inf-6.266667]\''
'\'(14.9-27.8]\'',-0.304342,-0.324144,-0.161211,-0.196633,0.516051,0.164635,0.474551,0.427142,-0.204595,-0.046024,0.334945,0.23592,0.189232,0.157836,0.095698,0.549406,0.008803,0.128177,0.443294,'\'(-inf-6.266667]\''
'\'(14.9-27.8]\'',-0.378158,-0.396826,-0.092846,-0.175124,0.525582,0.350329,0.490136,0.437383,-0.267563,-0.165518,0.255735,0.209692,0.189232,0.115697,0.044048,0.573884,0.005761,0.132156,0.451038,'\'(-inf-6.266667]\''
'\'(14.9-27.8]\'',-0.331537,-0.361999,-0.193713,-0.181436,0.535777,0.148127,0.490991,0.44344,-0.202893,-0.089976,0.221411,0.35657,0.210396,0.105973,0.019945,0.587097,0.013694,0.138904,0.458907,'\'(-inf-6.266667]\''
'\'(14.9-27.8]\'',-0.369277,-0.353671,-0.202678,-0.144262,0.543888,0.26954,0.492536,0.441567,-0.337338,-0.017181,0.482802,0.249034,0.122715,-0.00748,-0.073024,0.600879,0.017446,0.143406,0.464574,'\'(-inf-6.266667]\''
'\'(14.9-27.8]\'',-0.382598,-0.382441,-0.215007,-0.154549,0.550548,0.352435,0.495199,0.442098,-0.313512,-0.037783,0.725711,0.403781,0.14388,0.015211,-0.062694,0.606438,0.016359,0.152549,0.470554,'\'(-inf-6.266667]\''
'\'(-inf-14.9]\'',-0.403133,-0.411968,-0.154487,-0.173253,0.555219,0.295157,0.495429,0.445969,-0.310108,0.260265,0.614818,0.359193,0.168067,0.054109,-0.035147,0.607748,0.022332,0.159763,0.475811,'\'(-inf-6.266667]\''
'\'(-inf-14.9]\'',-0.567414,-0.438466,-0.215007,-0.191957,0.564088,0.484378,0.508416,0.443284,-0.752586,0.039133,0.46168,0.288376,0.165044,0.054109,-0.038591,0.618552,0.040727,0.162218,0.482233,'\'(-inf-6.266667]\''
'\'(-inf-14.9]\'',-0.559644,-0.471779,-0.179143,-0.191022,0.576713,0.452434,0.51223,0.450216,-0.655581,0.056988,0.480162,0.277885,0.183185,0.060592,-0.035147,0.639011,0.043789,0.162591,0.494132,'\'(-inf-6.266667]\''
'\'(-inf-14.9]\'',-0.491379,-0.509634,-0.034568,-0.065706,0.583972,0.345493,0.509567,0.452807,-0.361164,-0.073494,0.472241,0.553282,0.174114,0.024935,-0.086797,0.620291,0.055348,0.162525,0.500648,'\'(-inf-6.266667]\''
'\'(-inf-14.9]\'',-0.511359,-0.485407,-0.117502,-0.089086,0.588233,0.338289,0.512362,0.45696,-0.47859,-0.00894,0.628019,0.702783,0.158997,0.005486,-0.10057,0.607841,0.046694,0.16463,0.509525,'\'(-inf-6.266667]\''
'\'(-inf-14.9]\'',-0.484164,-0.487678,-0.164573,-0.184476,0.598806,0.405633,0.514367,0.456398,-0.388393,-0.003446,0.744193,0.482465,0.113645,-0.056102,-0.14189,0.672131,0.037502,0.169207,0.514341,'\'(-inf-6.266667]\''
'\'(-inf-14.9]\'',-0.449753,-0.413482,-0.139917,-0.224689,0.605056,0.263076,0.533963,0.478754,-0.449659,0.033639,0.540889,0.398535,-0.037529,-0.266799,-0.324384,0.669196,0.05065,0.174743,0.520605,'\'(-inf-6.266667]\''
'\'(-inf-14.9]\'',-0.508584,-0.457394,-0.225093,-0.193827,0.611494,0.252855,0.53439,0.478535,-0.533049,0.306964,0.915814,0.747371,-0.215914,-0.409425,-0.420797,0.690984,0.070853,0.178747,0.527436,'\'(-inf-6.266667]\''
'\'(-inf-14.9]\'',-0.504144,-0.444523,-0.125348,-0.168577,0.620174,0.440457,0.543629,0.48172,-0.546664,-0.12294,0.791719,0.603115,-0.091951,-0.292731,-0.317498,0.688042,0.078263,0.184549,0.536439,'\'(-inf-6.266667]\''
'\'(-inf-14.9]\'',-0.521349,-0.499035,-0.340529,-0.168577,0.631915,0.421148,0.554216,0.48962,-0.476888,-0.017181,0.976541,0.949328,-0.094975,-0.321905,-0.379477,0.700995,0.091578,0.183087,0.546291,'\'(-inf-6.266667]\''
'\'(-inf-14.9]\'',-0.559644,-0.566417,-0.130951,-0.120883,0.635198,0.599941,0.568189,0.501141,-0.444553,-0.188868,0.950138,0.833924,-0.097998,-0.273282,-0.355374,0.714282,0.092252,0.185511,0.551233,'\'(-inf-6.266667]\''
'\'(-inf-14.9]\'',-0.525789,-0.500549,-0.183626,-0.236379,0.648422,0.585842,0.562567,0.500017,-0.488801,-0.046024,0.918454,0.629343,-0.040552,-0.172796,-0.258962,0.732991,0.108332,0.192636,0.563384,'\'(-inf-6.266667]\''
'\'(-inf-14.9]\'',-0.569634,-0.566417,-0.229576,-0.230534,0.652083,0.620424,0.565559,0.492617,-0.473485,-0.173759,0.773237,0.734256,-0.016365,-0.098242,-0.179766,0.739893,0.115339,0.201714,0.568798,'\'(-inf-6.266667]\''
'\'(-inf-14.9]\'',-0.565194,-0.578531,-0.293458,-0.203647,0.663509,0.510128,0.565822,0.499767,-0.432641,0.249277,0.601616,0.322473,-0.043576,-0.117691,-0.196982,0.747136,0.125483,0.204657,0.578714,'\'(-inf-6.266667]\''
'\'(-inf-14.9]\'',-0.551319,-0.563388,-0.359582,-0.235911,0.670358,0.641367,0.577527,0.504388,-0.424131,-0.121566,0.707229,0.474597,0.0048,-0.000997,-0.073024,0.767125,0.13457,0.210894,0.584915,'\'(-inf-6.266667]\''
'\'(-inf-14.9]\'',-0.485274,-0.492221,-0.377514,-0.271448,0.678911,0.468115,0.57973,0.51132,-0.381586,-0.107831,0.870928,0.33821,0.080387,0.118939,0.050935,0.764978,0.139597,0.213969,0.593823,'\'(-inf-6.266667]\''
'\'(-inf-14.9]\'',-0.546879,-0.552789,-0.366306,-0.252745,0.689548,0.481862,0.580913,0.514754,-0.434342,0.059735,0.818122,0.626721,0.059222,0.076799,0.013059,0.784205,0.149704,0.221875,0.603173,'\'(-inf-6.266667]\''
'\'(-inf-14.9]\'',-0.579069,-0.572474,-0.320356,-0.286645,0.694313,0.572598,0.586733,0.514473,-0.490503,-0.073494,0.789078,0.571641,0.110621,0.128663,0.064708,0.798672,0.163191,0.224646,0.608115,'\'(-inf-6.266667]\''
'\'(-inf-14.9]\'',-0.582399,-0.570202,-0.308028,-0.29249,0.700626,0.462434,0.590547,0.520468,-0.50582,0.015783,0.472241,0.537545,0.125739,0.115697,0.057822,0.784968,0.169384,0.232281,0.613812,'\'(-inf-6.266667]\''
'\'(-inf-14.9]\'',-0.588504,-0.558846,-0.294579,-0.288282,0.71344,0.627657,0.59995,0.525121,-0.550067,-0.087229,0.730992,0.466728,0.180161,0.190251,0.123244,0.827178,0.168271,0.240144,0.625963,'\'(-inf-6.266667]\''
'\'(-inf-14.9]\'',-0.621805,-0.590644,-0.375272,-0.328729,0.722562,0.637916,0.61034,0.533051,-0.577297,-0.051518,0.791719,0.571641,0.216443,0.170802,0.095698,0.845013,0.185604,0.25603,0.633329,'\'(-inf-6.266667]\''
'\'(-inf-14.9]\'',-0.62347,-0.592158,-0.555711,-0.343926,0.732535,0.714786,0.617376,0.537797,-0.578998,0.058362,0.820762,0.729011,0.304124,0.242115,0.18178,0.871867,0.212663,0.267179,0.642646,'\'(-inf-6.266667]\''
'\'(-inf-14.9]\'',-0.620695,-0.561117,-0.404411,-0.297634,0.739731,0.832801,0.684316,0.603054,-0.641966,-0.080362,0.936936,0.540167,0.388781,0.368534,0.312626,0.869306,0.203435,0.273897,0.648312,'\'(-inf-6.266667]\''
'\'(-inf-14.9]\'',-0.665095,-0.630771,-0.221731,-0.272617,0.743203,0.811159,0.685599,0.608955,-0.621544,0.006169,0.844525,0.805073,0.419016,0.400949,0.264419,0.880976,0.225074,0.281504,0.652436,'\'(-inf-6.266667]\''
'\'(-inf-14.9]\'',-0.658435,-0.6179,-0.368548,-0.36146,0.758448,0.822851,0.688985,0.608268,-0.630054,0.247904,0.736272,0.456237,0.419016,0.342602,0.174894,0.894244,0.242491,0.286006,0.664555,'\'(-inf-6.266667]\''
'\'(-inf-14.9]\'',-0.68674,-0.653484,-0.29682,-0.37619,0.767254,0.966785,0.707693,0.618166,-0.636861,-0.12294,0.593695,0.513939,0.397851,0.264806,0.081925,0.915817,0.216614,0.298295,0.673873,'\'(-inf-6.266667]\''
'\'(-inf-14.9]\'',-0.65122,-0.620171,-0.222852,-0.326391,0.77426,0.648626,0.686651,0.606832,-0.601122,-0.048771,0.451118,0.380175,0.452274,0.40419,0.236873,0.925765,0.226673,0.306015,0.682215,'\'(-inf-6.266667]\''
'\'(-inf-14.9]\'',-0.697285,-0.632285,-0.399928,-0.285476,0.772903,0.647182,0.696843,0.61317,-0.715145,-0.028169,0.527687,0.33821,0.403898,0.277772,0.119801,0.928249,0.23586,0.319476,0.680106,'\'(-inf-6.266667]\''
'\'(-inf-14.9]\'',-0.64123,-0.578531,-0.320356,-0.266772,0.778142,0.655053,0.683396,0.603397,-0.665792,-0.139422,0.448478,0.086419,0.376687,0.238874,0.102584,0.92216,0.225059,0.323031,0.683851,'\'(-inf-6.266667]\''
'\'(-inf-14.9]\'',-0.612925,-0.570202,-0.243025,-0.183774,0.778332,0.46075,0.687703,0.610766,-0.597719,-0.068,0.474881,0.290999,0.406922,0.199976,0.026832,0.913045,0.23134,0.33304,0.685111,'\'(-inf-6.266667]\''
'\'(-inf-14.9]\'',-0.670645,-0.6179,-0.407773,-0.242457,0.781614,0.643495,0.695298,0.610891,-0.667494,-0.039157,0.522407,0.201823,0.391805,0.157836,0.016502,0.927542,0.250351,0.333615,0.689706,'\'(-inf-6.266667]\''
'\'(-inf-14.9]\'',-0.64456,-0.632285,-0.43243,-0.238717,0.782056,0.668727,0.701709,0.614138,-0.555173,-0.140795,0.540889,0.311982,0.355523,0.109214,-0.004158,0.914858,0.249389,0.343526,0.690242,'\'(-inf-6.266667]\''
'\'(-inf-14.9]\'',-0.65677,-0.658026,-0.358461,-0.083241,0.788495,0.534382,0.709403,0.624754,-0.533049,-0.120193,0.638581,0.317227,0.379711,0.083282,-0.011044,0.915613,0.241608,0.351908,0.697104,'\'(-inf-6.266667]\''
'\'(-inf-14.9]\'',-0.649,-0.620928,-0.319235,-0.028299,0.793545,0.714867,0.719003,0.633684,-0.594315,-0.168265,0.451118,0.267394,0.23156,-0.088517,-0.176323,0.903966,0.238933,0.352431,0.703714,'\'(-inf-6.266667]\''
'\'(-inf-14.9]\'',-0.625135,-0.595187,-0.172419,-0.056354,0.793134,0.615611,0.724395,0.650919,-0.578998,0.066603,0.863007,0.445746,-0.007294,-0.189003,-0.203869,0.88713,0.262673,0.35445,0.704533,'\'(-inf-6.266667]\''
'\'(-inf-14.9]\'',-0.559089,-0.566417,-0.3876,0.089769,0.795817,0.522664,0.718937,0.647828,-0.44115,0.345422,0.749474,0.511316,-0.046599,-0.179279,-0.224529,0.864713,0.261346,0.344512,0.709003,'\'(-inf-6.266667]\''
'\'(-inf-14.9]\'',-0.542439,-0.580045,-0.056983,0.164351,0.794649,0.343175,0.72456,0.654791,-0.359462,0.111928,0.757395,0.419518,-0.161491,-0.260316,-0.296838,0.856327,0.246677,0.337158,0.709978,'\'(-inf-6.266667]\''
'\'(-inf-14.9]\'',-0.554649,-0.567931,-0.134313,0.209006,0.78537,0.228104,0.708646,0.643707,-0.424131,0.511615,0.775877,0.574264,-0.258243,-0.221418,-0.210756,0.84448,0.270663,0.33522,0.705603,'\'(-inf-6.266667]\''
'\'(-inf-14.9]\'',-0.552984,-0.634556,-0.072673,0.198485,0.783855,0.154728,0.701841,0.63587,-0.270966,0.139398,0.773237,0.45886,-0.318712,-0.166313,-0.124673,0.8268,0.277765,0.330399,0.708405,'\'(-inf-6.266667]\''
'\'(-inf-14.9]\'',-0.536334,-0.569445,-0.095088,0.21111,0.780383,0.043638,0.69464,0.637087,-0.364567,0.286362,0.670264,0.540167,-0.379182,-0.205211,-0.162549,0.80905,0.270998,0.318182,0.709821,'\'(-inf-6.266667]\''
'\'(-inf-14.9]\'',-0.469178,-0.575502,0.086472,0.214851,0.776343,0.052225,0.70115,0.646361,-0.14503,0.058362,0.596336,0.629343,-0.367088,-0.221418,-0.176323,0.788846,0.263807,0.306214,0.70979,'\'(-inf-6.266667]\''
'\'(-inf-14.9]\'',-0.353737,-0.458151,0.086472,0.214851,0.771609,-0.250906,0.673861,0.634808,-0.054833,0.503374,0.641221,0.359193,-0.41244,-0.283007,-0.269292,0.785952,0.27719,0.303236,0.710356,'\'(-inf-6.266667]\''
'\'(-inf-14.9]\'',-0.304342,-0.486921,0.269152,0.387861,0.763466,-0.255043,0.693753,0.656821,0.1613,0.326193,0.509205,0.346078,-0.608966,-0.428874,-0.351931,0.768109,0.240574,0.296562,0.706421,'\'(-inf-6.266667]\''
'\'(-inf-14.9]\'',-0.231081,-0.418782,0.472006,0.601786,0.75365,-0.511889,0.678826,0.659849,0.232777,0.702531,0.511846,0.288376,-0.757116,-0.496945,-0.407024,0.758124,0.344983,0.271026,0.701542,'\'(-inf-6.266667]\''
'\'(-inf-14.9]\'',-0.1001,-0.269632,0.511232,0.446311,0.743929,-0.541317,0.673762,0.664658,0.30085,0.673688,0.736272,0.450991,-0.802468,-0.477496,-0.379477,0.738912,0.300047,0.251947,0.697198,'\'(-inf-6.266667]\''
'\'(-inf-14.9]\'',-0.030169,-0.25449,0.770122,0.302759,0.738848,-0.618288,0.667483,0.666687,0.479543,0.600892,0.812841,0.361815,-0.790374,-0.341354,-0.227972,0.737646,0.28055,0.242501,0.69575,'\'(-inf-6.266667]\''
'\'(-inf-14.9]\'',0.044201,-0.196193,0.556061,0.263948,0.734934,-0.598414,0.656107,0.653511,0.576548,0.610507,0.773237,0.702783,-0.808515,-0.357561,-0.245189,0.760282,0.284903,0.239793,0.695971,'\'(-inf-6.266667]\''
'\'(14.9-27.8]\'',0.060851,-0.187865,0.52356,0.219527,0.731052,-0.696928,0.680338,0.677553,0.608883,0.528097,1.095355,1.046373,-0.787351,-0.370527,-0.289951,0.760075,0.293965,0.231262,0.694712,'\'(-inf-6.266667]\''
'\'(14.9-27.8]\'',0.122457,-0.100041,0.507869,0.296212,0.73061,-0.648264,0.671757,0.672182,0.602075,0.651712,0.841885,0.555904,-0.684552,-0.227901,-0.162549,0.784823,0.289836,0.228139,0.697198,'\'(-inf-6.266667]\''
'\'(14.9-27.8]\'',0.196273,-0.003889,0.854177,0.360974,0.727233,-0.739463,0.67008,0.679801,0.610585,0.456675,0.783798,0.424763,-0.711764,-0.257075,-0.186653,0.800523,0.305869,0.224699,0.696915,'\'(-inf-6.266667]\''
'\'(14.9-27.8]\'',0.260098,0.084692,0.531405,0.266286,0.727769,-0.716327,0.683659,0.686452,0.607181,0.334434,0.907893,0.875889,-0.751069,-0.308939,-0.203869,0.814739,0.294472,0.229405,0.700063,'\'(-inf-6.266667]\''
'\'(14.9-27.8]\'',0.291179,0.135418,0.609856,0.164351,0.729063,-0.731085,0.679582,0.682392,0.588461,0.153133,1.018786,0.752616,-0.796421,-0.406184,-0.283065,0.842082,0.302101,0.234612,0.702266,'\'(-inf-6.266667]\''
'\'(14.9-27.8]\'',0.259543,0.092264,0.400279,0.158739,0.726223,-0.74628,0.679516,0.682236,0.588461,0.400362,0.965979,0.590001,-0.868984,-0.52936,-0.379477,0.840971,0.321619,0.242408,0.701196,'\'(-inf-6.266667]\''
'\'(14.9-27.8]\'',0.215698,0.083935,0.465281,0.194277,0.726191,-0.681576,0.689117,0.688668,0.471034,0.449808,0.852446,0.532299,-0.929454,-0.697918,-0.513766,0.837526,0.330623,0.245308,0.703462,'\'(-inf-6.266667]\''
'\'(14.9-27.8]\'',0.262318,0.089235,0.466402,0.268624,0.723698,-0.749885,0.708745,0.705623,0.603777,0.236916,1.1376,0.980802,-0.941548,-0.81137,-0.648054,0.840738,0.305435,0.256761,0.702613,'\'(-inf-6.266667]\''
'\'(14.9-27.8]\'',0.301724,0.144504,0.450712,0.259272,0.727296,-0.695344,0.699079,0.698191,0.598672,0.227302,1.127039,0.571641,-0.962712,-0.808129,-0.623951,0.831911,0.315239,0.257952,0.708499,'\'(-inf-6.266667]\''
'\'(14.9-27.8]\'',0.312824,0.212643,0.442867,0.18773,0.727264,-0.71387,0.683067,0.689668,0.481245,0.481398,1.05311,0.847038,-1.011088,-0.775714,-0.586075,0.850265,0.317684,0.260509,0.709758,'\'(-inf-6.266667]\''
'\'(14.9-27.8]\'',0.42882,0.349679,0.537009,0.290835,0.722498,-0.846826,0.679944,0.690448,0.528896,0.327567,1.383149,0.938837,-1.023182,-0.782197,-0.592962,0.831608,0.334605,0.27084,0.707964,'\'(-inf-6.266667]\''
'\'(14.9-27.8]\'',0.370544,0.225514,0.529163,0.200823,0.725907,-0.738819,0.712526,0.717644,0.627603,0.35229,1.150801,1.10932,-1.050393,-0.775714,-0.586075,0.859228,0.345114,0.269588,0.712686,'\'(-inf-6.266667]\''
'\'(14.9-27.8]\'',0.367769,0.304253,0.561665,0.275638,0.721741,-0.823825,0.714663,0.722733,0.443805,0.272627,1.272256,0.521808,-1.068534,-0.824336,-0.637724,0.863433,0.324415,0.280865,0.712434,'\'(-inf-6.266667]\''
'\'(14.9-27.8]\'',0.367769,0.254284,0.512352,0.352324,0.715239,-0.864094,0.713085,0.720298,0.556126,0.317952,1.016145,0.776222,-1.086675,-0.863234,-0.668714,0.854184,0.342606,0.284606,0.708373,'\'(-inf-6.266667]\''
'\'(14.9-27.8]\'',0.471555,0.35195,0.617702,0.393706,0.713251,-0.891315,0.719628,0.734411,0.654832,0.267133,1.1376,0.558527,-1.077604,-0.814612,-0.617065,0.833107,0.347183,0.284942,0.708971,'\'(-inf-6.266667]\''
'\'(14.9-27.8]\'',0.454905,0.353464,0.584079,0.336426,0.714008,-0.845612,0.716702,0.735222,0.600374,0.533591,1.22209,0.841792,-1.104815,-0.947513,-0.751353,0.831956,0.350141,0.279319,0.71064,'\'(-inf-6.266667]\''
'\'(14.9-27.8]\'',0.584776,0.482929,0.711844,0.325905,0.713661,-0.849528,0.72479,0.752583,0.709291,0.420964,1.327702,1.14604,-1.156215,-1.028551,-0.833992,0.836382,0.371316,0.274839,0.711741,'\'(6.266667-10.533333]\''
'\'(14.9-27.8]\'',0.629732,0.38602,0.567268,0.277976,0.713629,-0.951551,0.7144,0.734754,1.063273,0.165494,1.354106,1.224725,-1.122956,-0.834061,-0.610178,0.853677,0.384568,0.270465,0.714197,'\'(-inf-6.266667]\''
'\'(14.9-27.8]\'',0.587551,0.403433,0.577355,0.225138,0.712651,-0.870687,0.716866,0.733505,0.893089,0.276747,1.567971,1.056864,-1.06551,-0.671986,-0.448343,0.846512,0.402257,0.263771,0.713315,'\'(-inf-6.266667]\''
'\'(14.9-27.8]\'',0.548146,0.417818,0.745466,0.203161,0.715807,-0.905927,0.718839,0.736159,0.741626,0.143518,1.554769,1.334883,-1.086675,-0.733575,-0.510322,0.868296,0.398751,0.267415,0.716683,'\'(-inf-6.266667]\''
'\'(14.9-27.8]\'',0.528721,0.376178,0.541491,0.140036,0.721709,-0.812724,0.731168,0.741967,0.775663,0.151759,1.689425,1.408322,-1.083651,-0.730333,-0.503436,0.872848,0.395009,0.274485,0.72279,'\'(-inf-6.266667]\''
'\'(14.9-27.8]\'',0.511516,0.411761,0.447349,0.051193,0.723003,-0.786226,0.745635,0.750834,0.642919,0.07759,1.441236,1.71257,-1.05644,-0.697918,-0.499993,0.895854,0.401426,0.279637,0.724207,'\'(-inf-6.266667]\''
'\'(14.9-27.8]\'',0.481545,0.354979,0.38683,0.028982,0.726412,-0.719565,0.745207,0.742373,0.678658,-0.062506,1.623418,1.644377,-1.06551,-0.704401,-0.510322,0.897582,0.408058,0.281987,0.727197,'\'(-inf-6.266667]\''
'\'(14.9-27.8]\'',0.480435,0.339837,0.290446,0.0381,0.731683,-0.723657,0.747213,0.745901,0.709291,0.117422,1.531007,1.261444,-1.086675,-0.753024,-0.551642,0.903267,0.414804,0.283113,0.732045,'\'(-inf-6.266667]\''
'\'(14.9-27.8]\'',0.416055,0.298196,0.365536,0.040672,0.733703,-0.655541,0.749514,0.741748,0.605479,-0.239687,1.567971,1.090961,-1.086675,-0.769231,-0.575745,0.924462,0.424848,0.298671,0.73472,'\'(-inf-6.266667]\''
'\'(14.9-27.8]\'',0.452685,0.394348,0.363294,-0.047003,0.743771,-0.705996,0.746588,0.749086,0.501667,0.051494,1.832002,1.48963,-1.101792,-0.859993,-0.661828,0.911039,0.453882,0.309945,0.742716,'\'(-inf-6.266667]\''
'\'(14.9-27.8]\'',0.262318,0.259584,0.325189,-0.017778,0.752388,-0.663487,0.754052,0.746151,0.220864,0.247904,1.842564,1.502744,-1.029229,-0.665503,-0.482776,0.924322,0.44284,0.319694,0.749924,'\'(-inf-6.266667]\''
'\'(14.9-27.8]\'',0.335579,0.255041,0.300533,-0.074123,0.761383,-0.599323,0.759707,0.752864,0.455718,0.169615,2.053789,1.445042,-0.923407,-0.516394,-0.355374,0.949814,0.462332,0.333353,0.756409,'\'(-inf-6.266667]\''
'\'(14.9-27.8]\'',0.350564,0.291382,0.310619,-0.014271,0.764445,-0.742156,0.770294,0.765197,0.421681,0.106434,1.710548,1.04375,-0.820609,-0.490462,-0.351931,0.923189,0.452084,0.347613,0.759274,'\'(-inf-6.266667]\''
'\'(14.9-27.8]\'',0.232903,0.165703,0.307257,-0.042327,0.766307,-0.549811,0.782853,0.772441,0.341695,0.302844,1.953457,1.500121,-0.826656,-0.568258,-0.431127,0.948545,0.465431,0.365595,0.760659,'\'(-inf-6.266667]\''
'\'(14.9-27.8]\'',0.192943,0.134661,0.507869,-0.052847,0.769053,-0.624362,0.783412,0.768444,0.288938,0.083084,1.805599,1.557823,-0.850844,-0.639571,-0.506879,0.951502,0.462875,0.380697,0.762107,'\'(-inf-6.266667]\''
'\'(14.9-27.8]\'',0.228463,0.181602,0.186218,-0.069213,0.773818,-0.511251,0.780585,0.763792,0.294043,0.217687,1.765994,1.245707,-0.820609,-0.675228,-0.558529,0.955395,0.495557,0.379022,0.766388,'\'(-inf-6.266667]\''
'\'(14.9-27.8]\'',0.301169,0.2081,0.216478,-0.08441,0.78455,-0.490512,0.78864,0.775594,0.455718,0.181976,1.913852,1.683719,-0.787351,-0.678469,-0.568859,0.986269,0.50094,0.392722,0.775642,'\'(-inf-6.266667]\''
'\'(14.9-27.8]\'',0.256213,0.181602,0.256824,-0.108959,0.786854,-0.640256,0.805046,0.787116,0.377433,0.052868,1.866326,0.9231,-0.705717,-0.620122,-0.537869,0.994856,0.511621,0.409609,0.778192,'\'(-inf-6.266667]\''
'\'(14.9-27.8]\'',0.237898,0.144504,0.177252,-0.125325,0.790799,-0.419632,0.801561,0.7839,0.404662,0.231422,1.874247,1.605034,-0.654318,-0.597432,-0.524096,1.022243,0.533318,0.412271,0.781875,'\'(-inf-6.266667]\''
'\'(14.9-27.8]\'',0.195718,0.140718,0.210874,-0.040456,0.795596,-0.491822,0.805507,0.782963,0.283832,0.048747,2.024745,1.872562,-0.596872,-0.561775,-0.527539,1.034716,0.515551,0.430155,0.788076,'\'(-inf-6.266667]\''
'\'(14.9-27.8]\'',0.220693,0.125576,0.263548,-0.18845,0.80355,-0.468026,0.81011,0.793423,0.394451,0.205326,1.958737,2.0378,-0.545473,-0.542326,-0.544755,1.060341,0.536642,0.44241,0.793616,'\'(-inf-6.266667]\''
'\'(14.9-27.8]\'',0.176848,0.149803,0.244496,-0.093762,0.807306,-0.392851,0.818954,0.794266,0.205548,-0.160024,1.821441,1.138171,-0.463839,-0.412667,-0.431127,1.055293,0.541193,0.451498,0.796418,'\'(-inf-6.266667]\''
'\'(14.9-27.8]\'',0.099702,0.111191,0.200787,-0.13491,0.818889,-0.336307,0.838681,0.81097,0.055786,0.121542,2.053789,1.654868,-0.457792,-0.467772,-0.486219,1.062703,0.556583,0.460772,0.805767,'\'(-inf-6.266667]\''
'\'(14.9-27.8]\'',0.102477,0.057437,0.135784,-0.117142,0.824255,-0.46975,0.850353,0.82143,0.185126,0.212193,1.882168,1.560446,-0.454768,-0.516394,-0.555085,1.066048,0.546701,0.463763,0.810017,'\'(-inf-6.266667]\''
'\'(14.9-27.8]\'',-0.051815,-0.065971,0.28148,-0.122987,0.832398,-0.342798,0.853805,0.820712,-0.010585,0.081711,2.127717,1.673228,-0.445698,-0.542326,-0.603291,1.081711,0.598885,0.460456,0.817697,'\'(-inf-6.266667]\''
'\'(14.9-27.8]\'',-0.027394,-0.062186,0.289325,-0.129299,0.843539,-0.241471,0.864063,0.826769,0.054084,-0.043277,2.193725,1.636508,-0.361041,-0.474255,-0.541312,1.07029,0.610956,0.456407,0.82818,'\'(-inf-6.266667]\''
